!-----------------------------------------------------------------------
! Created by FMOutil ... Tue Apr 29 19:20:18 2025
! Input File: 5awl-addH.pdb                                               
!-----------------------------------------------------------------------
 $contrl runtyp=energy nprint=-5 $end
 $system mwords=123 $end
 $gddi ngroup=1 $end
 $intgrl nintic=-103000000 $end
 $scf dirscf=.f. npunch=0 $end
 $fmoprp
   ngrfmo(1)=1,1,0,0,0,  0,0,0,0,0
   ipieda=1
   naodir=210
   nprint=9
 $end
 $fmo
      nlayer=1
      nfrag=22
      icharg(1)= 0, 0, 0, 0, 0,   0, 0, 0, 0,-1,
                 0, 0, 0, 0, 0,   0, 0, 0, 0, 0,
                 0, 0
      frgnam(1)= tyr001, tyr002, asp003, pro004, glu005,
                 thr006, gly007, thr008, trp009, tyr010,
                 hoh101, hoh102, hoh103, hoh104, hoh105,
                 hoh106, hoh107, hoh108, hoh109, hoh110,
                 hoh111, hoh112
      indat(1)= 0
                1      2      5    -22      0
                3      4     23     24     27    -43      0
               25     26     44     45     48    -56      0
               46     47     57     58     61    -70      0
               59     60     71     72     75    -86      0
               73     74     87     88     91   -100      0
               89     90    101    102    105   -107      0
              103    104    108    109    112   -121      0
              110    111    122    123    126   -145      0
              124    125    146   -167      0
              168   -170      0
              171   -173      0
              174   -176      0
              177   -179      0
              180   -182      0
              183   -185      0
              186   -188      0
              189   -191      0
              192   -194      0
              195   -197      0
              198   -200      0
              201   -203      0
 $end
 $fmohyb
  6-31G        9   5
    1 0  -0.067723   0.300280   0.000000   0.000000   0.606750
          0.306535   0.000000   0.000000   0.309792
    0 1  -0.067730   0.300309   0.572036   0.000000  -0.202233
          0.306551   0.292061   0.000000  -0.103255
    0 1  -0.067730   0.300309  -0.286018  -0.495398  -0.202233
          0.306551  -0.146031  -0.252932  -0.103255
    0 1  -0.067730   0.300309  -0.286018   0.495398  -0.202233
          0.306551  -0.146031   0.252932  -0.103255
    0 1   1.011953  -0.016447   0.000000   0.000000   0.000000
         -0.059374   0.000000   0.000000  -0.000000
  MINI         5   5
    1 0  -0.104883   0.308874   0.000000   0.000000   0.521806
    0 1  -0.104883   0.308874   0.491961   0.000000  -0.173934
    0 1  -0.104883   0.308876  -0.245980  -0.426050  -0.173933
    0 1  -0.104883   0.308876  -0.245980   0.426050  -0.173933
    0 1   0.988209   0.063992   0.000000   0.000000   0.000000
 $end
 $fmobnd
      -2     3  6-31G       MINI      
     -24    25  6-31G       MINI      
     -45    46  6-31G       MINI      
     -58    59  6-31G       MINI      
     -72    73  6-31G       MINI      
     -88    89  6-31G       MINI      
    -102   103  6-31G       MINI      
    -109   110  6-31G       MINI      
    -123   124  6-31G       MINI      
 $end
 $data
 de novo protein                         05-jul-15   5awl
 C1
 h.1-1    1
       n31 6
  
 c.1-1    6
       n31 6
  
 n.1-1    7
       n31 6
  
 o.1-1    8
       n31 6
  
 $end
 $fmoxyz
      1      N           25.82399940       21.67099953       10.23799992
      2      C           24.93499947       20.65200043       10.77400017
      3      C           23.72900009       20.55800056        9.85200024
      4      O           23.38999939       21.60199928        9.28899956
      5      C           24.42499924       21.02899933       12.16699982
      6      C           25.52499962       21.52599907       13.06999969
      7      C           25.82900047       22.87000084       13.27499962
      8      C           26.29100037       20.56399918       13.73600006
      9      C           26.87000084       23.24200058       14.13500023
     10      C           27.32500076       20.87100029       14.57699966
     11      C           27.57699966       22.23100090       14.75199986
     12      O           28.64800072       22.62000084       15.58199978
     13      H           25.48200035       19.71199989       10.84300041
     14      H           23.67600060       21.81399918       12.06400013
     15      H           23.96999931       20.14999962       12.62199974
     16      H           25.25699997       23.63199997       12.76599979
     17      H           26.05299950       19.52199936       13.57800007
     18      H           27.11000061       24.28100014       14.30799961
     19      H           27.90800095       20.10899925       15.07299995
     20      H           28.70100021       23.57799911       15.60799980
     21      H           26.68899918       21.88299942       10.71399975
     22      H           25.57200050       22.16200066        9.39200020
     23      N           23.06800079       19.43000031        9.70400047
     24      C           21.80100060       19.38100052        9.01700020
     25      C           20.66699982       19.51899910       10.02099991
     26      O           20.66699982       18.95700073       11.08699989
     27      C           21.64800072       18.11400032        8.20800018
     28      C           22.55299950       17.95999908        7.03100014
     29      C           23.69799995       17.18799973        7.09499979
     30      C           22.27099991       18.55599976        5.81599998
     31      C           24.52000046       17.03899956        5.99100018
     32      C           23.07999992       18.37700081        4.70900011
     33      C           24.22900009       17.64699936        4.77799988
     34      O           24.97699928       17.47800064        3.66499996
     35      H           23.39100075       18.60600090       10.18999958
     36      H           21.76399994       20.21400070        8.31499958
     37      H           21.82699966       17.27099991        8.87600040
     38      H           20.62199974       18.07600021        7.84299994
     39      H           23.95499992       16.69400024        8.02000046
     40      H           21.39299965       19.17900085        5.72900009
     41      H           25.41099930       16.43400002        6.07600021
     42      H           22.79500008       18.82600021        3.76900005
     43      H           25.74699974       16.94499969        3.87500000
     44      N           19.66500092       20.30599976        9.62600040
     45      C           18.47699928       20.53899956       10.43200016
     46      C           17.53400040       19.32900047       10.39799976
     47      O           17.29400063       18.80400085        9.31099987
     48      C           17.77899933       21.77799988        9.90400028
     49      C           16.61199951       22.19400024       10.72299957
     50      O           15.52999973       21.61100006       10.64999962
     51      O           16.85400009       23.19700050       11.51200008
     52      H           19.71999931       20.75099945        8.72099972
     53      H           18.76700020       20.68799973       11.47200012
     54      H           18.49699974       22.59700012        9.88599968
     55      H           17.43400002       21.57399940        8.89000034
     56      H           16.06500053       23.40399933       12.01799965
     57      N           17.02599907       18.88899994       11.52600002
     58      C           16.22299957       17.65999985       11.53699970
     59      C           14.85200024       17.78800011       10.90699959
     60      O           14.26000023       16.75600052       10.57800007
     61      C           16.10099983       17.31900024       13.04699993
     62      C           16.24600029       18.63899994       13.68599987
     63      C           17.24300003       19.40699959       12.88899994
     64      H           16.70299911       16.88899994       10.93400002
     65      H           15.13099957       16.87599945       13.27400017
     66      H           16.89299965       16.63999939       13.36200047
     67      H           15.28899956       19.15999985       13.68799973
     68      H           16.59799957       18.52099991       14.71100044
     69      H           18.25900078       19.20700073       13.22999954
     70      H           17.04700089       20.47800064       12.93900013
     71      N           14.33100033       19.01199913       10.80099964
     72      C           13.03999996       19.28899956       10.21199989
     73      C           13.13199997       19.59199905        8.73600006
     74      O           12.25800037       19.14999962        7.95300007
     75      C           12.28600025       20.42099953       10.96399975
     76      C           11.64500046       19.98200035       12.24100018
     77      C           10.49499989       19.01199913       12.16699982
     78      O           10.27799988       18.22100067       13.12699986
     79      O            9.75199986       19.06699944       11.16699982
     80      H           14.88300037       19.80599976       11.09300041
     81      H           12.45800018       18.37400055       10.31900024
     82      H           12.99800014       21.21400070       11.19299984
     83      H           11.50899982       20.80999947       10.30700016
     84      H           12.42099953       19.51600075       12.84799957
     85      H           11.27999973       20.87800026       12.74300003
     86      H            9.03600025       18.43499947       11.26500034
     87      N           14.13700008       20.35099983        8.31400013
     88      C           14.19999981       20.80599976        6.94099998
     89      C           15.25500011       20.07200050        6.13500023
     90      O           15.23999977       20.13299942        4.90000010
     91      C           14.51099968       22.29000092        6.82399988
     92      O           15.80200005       22.53400040        7.36800003
     93      C           13.53600025       23.15200043        7.62599993
     94      H           14.81599998       20.68199921        8.98499966
     95      H           13.20499992       20.60000038        6.54600000
     96      H           14.44099998       22.54800034        5.76700020
     97      H           16.00699997       23.46899986        7.29799986
     98      H           13.80000019       24.20299911        7.51000023
     99      H           12.52200031       22.98999977        7.26000023
    100      H           13.59000015       22.87800026        8.68000031
    101      N           16.21599960       19.38500023        6.75099993
    102      C           17.25600052       18.67600060        6.03900003
    103      C           18.25900078       19.55599976        5.36100006
    104      O           19.01499939       19.09099960        4.50600004
    105      H           16.21800041       19.34199905        7.76000023
    106      H           17.78499985       18.04400063        6.75199986
    107      H           16.78400040       18.05200005        5.28000021
    108      N           18.36199951       20.80400085        5.69500017
    109      C           19.24200058       21.76000023        5.12500000
    110      C           20.41900063       22.02599907        6.07399988
    111      O           20.31699944       21.87199974        7.31300020
    112      C           18.55299950       23.07299995        4.76200008
    113      O           17.90500069       23.60199928        5.92199993
    114      C           17.49799919       22.87100029        3.68600011
    115      H           17.73800087       21.17600060        6.39699984
    116      H           19.60600090       21.33099937        4.19099998
    117      H           19.31599998       23.75600052        4.38800001
    118      H           17.47100067       24.42799950        5.69700003
    119      H           17.02899933       23.82699966        3.45300007
    120      H           17.96699905       22.46800041        2.78800011
    121      H           16.74200058       22.17300034        4.04500008
    122      N           21.51700020       22.41799927        5.51700020
    123      C           22.76199913       22.68000031        6.24100018
    124      C           22.68700027       24.05999947        6.86899996
    125      O           22.32099915       25.03100014        6.18499994
    126      C           23.92399979       22.60400009        5.30700016
    127      C           25.26700020       22.74500084        5.96899986
    128      C           26.02400017       23.84700012        6.05999994
    129      C           25.97500038       21.70100021        6.64099979
    130      N           27.18000031       23.57099915        6.75000000
    131      C           27.17799950       22.24500084        7.09999990
    132      C           25.74699974       20.34700012        6.89400005
    133      C           28.12500000       21.49200058        7.78100014
    134      C           26.67600060       19.59300041        7.57200003
    135      C           27.86499977       20.17600060        8.02600002
    136      H           21.54500008       22.52599907        4.51300001
    137      H           22.89599991       21.93000031        7.02099991
    138      H           23.89299965       21.63800049        4.80299997
    139      H           23.82200050       23.40200043        4.57100010
    140      H           25.76300049       24.81200027        5.65100002
    141      H           27.90999985       24.23500061        6.96400023
    142      H           24.83099937       19.88699913        6.55399990
    143      H           29.05100060       21.94000053        8.11100006
    144      H           26.48699951       18.54599953        7.75500011
    145      H           28.57999992       19.57999992        8.57299995
    146      N           23.05299950       24.18799973        8.13899994
    147      C           23.13500023       25.46699905        8.79399967
    148      C           24.38599968       25.59000015        9.64599991
    149      O           24.58499908       26.75000000       10.06999969
    150      C           21.86199951       25.75300026        9.63599968
    151      C           21.75399971       24.86000061       10.82100010
    152      C           22.19899940       25.20800018       12.10000038
    153      C           21.20299911       23.58600044       10.71599960
    154      C           22.10400009       24.38500023       13.18200016
    155      C           21.11800003       22.74699974       11.80399990
    156      C           21.56299973       23.12500000       13.05000019
    157      O           21.49900055       22.31500053       14.12800026
    158      O           25.08399963       24.58699989        9.88399982
    159      H           23.34199905       23.36599922        8.64999962
    160      H           23.19899940       26.22100067        8.01000023
    161      H           21.89399910       26.78700066        9.97900009
    162      H           20.98500061       25.60600090        9.00599957
    163      H           22.64299965       26.18300056       12.23799992
    164      H           20.83399963       23.24799919        9.75899982
    165      H           22.45400047       24.72200012       14.14700031
    166      H           20.69000053       21.76399994       11.67599964
    167      H           21.86000061       22.77000046       14.89200020
    168      O            7.81300020       17.74900055       10.93900013
    169      H            8.16100025       17.35700035       10.13799953
    170      H            7.90199995       18.69199944       10.80200005
    171      O           30.52700043       20.88899994       16.18600082
    172      H           31.21199989       20.25799942       16.40600014
    173      H           30.66600037       21.61499977       16.79400063
    174      O           20.81699944       19.78300095       13.73799992
    175      H           20.86899948       20.06699944       14.64999962
    176      H           20.56299973       18.86199951       13.78800011
    177      O           19.70599937       25.50399971        6.46000004
    178      H           20.35099983       26.18499947        6.65299988
    179      H           18.86100006       25.91799927        6.63399982
    180      O           19.24600029       16.79800034        3.13700008
    181      H           19.16399956       17.61700058        3.62599993
    182      H           20.18899918       16.63800049        3.09400010
    183      O           13.78199959       21.39200020        2.92100000
    184      H           14.28699970       20.95599937        3.60700011
    185      H           14.43200016       21.63100052        2.25999999
    186      O           27.07600021       15.68500042        3.84400010
    187      H           27.80200005       15.06499958        3.90599990
    188      H           27.25000000       16.32699966        4.53200006
    189      O           28.38299942       22.29800034       11.29599953
    190      H           29.24600029       22.50900078       11.65299988
    191      H           27.89399910       21.95100021       12.04199982
    192      O           29.87100029       24.58200073        7.63700008
    193      H           30.72699928       24.90399933        7.91900015
    194      H           29.53199959       24.10700035        8.39500046
    195      O           18.36100006       25.58499908       12.71000004
    196      H           18.83099937       26.32999992       13.08399963
    197      H           18.80299950       24.81699944       13.07199955
    198      O            8.89700031       16.52899933        8.44600010
    199      H            9.24499989       16.13699913        7.64499998
    200      H            8.88000011       15.81000042        9.07699966
    201      O            9.62300014       16.79800034        5.90799999
    202      H            9.88500023       16.89500046        4.99300003
    203      H           10.44900036       16.76099968        6.39099979
 $end
;----------------------------------------------------------------------
; frg#, #atm, chg,   frg names,                   res#s of the frg
;----------------------------------------------------------------------
;    1   20    0     tyr001                           1
;    2   21    0     tyr002                           2
;    3   13    0     asp003                           3
;    4   14    0     pro004                           4
;    5   16    0     glu005                           5
;    6   14    0     thr006                           6
;    7    7    0     gly007                           7
;    8   14    0     thr008                           8
;    9   24    0     trp009                           9
;   10   24   -1     tyr010                          10
; imol =     1
; total # of atoms =   167
; total charge =  -1
;----------------------------------------------------------------------
;   11    3    0     hoh101                          11
;   12    3    0     hoh102                          12
;   13    3    0     hoh103                          13
;   14    3    0     hoh104                          14
;   15    3    0     hoh105                          15
;   16    3    0     hoh106                          16
;   17    3    0     hoh107                          17
;   18    3    0     hoh108                          18
;   19    3    0     hoh109                          19
;   20    3    0     hoh110                          20
;   21    3    0     hoh111                          21
;   22    3    0     hoh112                          22
; imol =     2
; total # of atoms =    36
; total charge =   0
;----------------------------------------------------------------------
; charge of total system =   -1
; s-s bond in the system =    0
; number of each residue in the system
;  gly  ala  val  phe  ile  leu  pro  met  asp  glu  lys  arg  ser  thr
;    1    0    0    0    0    0    1    0    1    1    0    0    0    2
;  tyr  cys  asn  gln  his  trp  ace  nme  hoh  non-peptide
;    3    0    0    0    0    1    0    0   12    0
; fragmentation options: nfgsiz,ifcys,ifgly     1    2    2
