 $contrl runtyp=energy nprint=-5 maxit=200 $end
 $system mwords=218 memddi=0 $end
 $gddi ngroup=1 $end
 $scf dirscf=.t. npunch=0 $end
 $fmoprp
   ngrfmo(1)=1,1,0,0,0,  0,0,0,0,0
   ipieda=1
   naodir=220
   nprint=9
   maxit=100
 $end
 $fmo
      nlayer=1
      mplevl(1)=2
      nfrag=18
      icharg(1)= 1, 0,-1, 0,-1, 0, 0, 0, 0,-1,
                 0, 0, 0, 0, 0, 0, 0, 0
      frgnam(1)= TYR001, TYR002, ASP003, PRO004, GLU005,
                 THR006, GLY007, THR008, TRP009, TYR010,
                 HOH001, HOH002, HOH003, HOH004, HOH005,
                 HOH006, HOH007, HOH008
      indat(1)= 0
                1     -6      9    -23      0
                7      8     24    -27     30    -44      0
               28     29     45    -48     51    -56      0
               49     50     57    -59     62    -70      0
               60     61     71    -74     77    -85      0
               75     76     86    -89     92    -99      0
               90     91    100   -104      0
              105   -110    113   -120      0
              111    112    121   -124    127   -144      0
              125    126    145   -166      0
              167   -169      0
              170   -172      0
              173   -175      0
              176   -178      0
              179   -181      0
              182   -184      0
              185   -187      0
              188   -190      0
 $end
 $fmohyb
  6-31G        9   5
    1 0  -0.067724   0.300281   0.000000   0.000000   0.606750
          0.306535   0.000000   0.000000   0.309793
    0 1  -0.067730   0.300310   0.572037   0.000000  -0.202234
          0.306552   0.292061   0.000000  -0.103255
    0 1  -0.067730   0.300310  -0.286019  -0.495398  -0.202234
          0.306552  -0.146031  -0.252933  -0.103255
    0 1  -0.067730   0.300310  -0.286019   0.495398  -0.202234
          0.306552  -0.146031   0.252933  -0.103255
    0 1   1.011954  -0.016447   0.000000   0.000000   0.000000
         -0.059374   0.000000   0.000000  -0.000001
  MINI         5   5
    1 0  -0.109772   0.515046   0.000000   0.000000   0.864512
    0 1  -0.109775   0.515062   0.815062   0.000000  -0.288166
    0 1  -0.109775   0.515062  -0.407531  -0.705864  -0.288166
    0 1  -0.109775   0.515062  -0.407531   0.705864  -0.288166
    0 1   0.996474   0.015610   0.000000   0.000000   0.000000
 $end
 $fmobnd
      -5     7  6-31G       MINI      
     -26    28  6-31G       MINI      
     -47    49  6-31G       MINI      
     -58    60  6-31G       MINI      
     -73    75  6-31G       MINI      
     -88    90  6-31G       MINI      
    -102   105  6-31G       MINI      
    -109   111  6-31G       MINI      
    -123   125  6-31G       MINI      
 $end
 $data
 Structure from PDB
 C1
 h.1-1     1
       n31 6

 n.1-1     7
       n31 6

 c.1-1     6
       n31 6

 o.1-1     8
       n31 6

 $end
 $fmoxyz
      1      N           25.82400000       21.67100000       10.23800000
      2      H           25.33860000       22.56530000       10.16070000
      3      H           26.15680000       21.41930000        9.31620000
      4      H           26.63210000       21.80980000       10.83150000
      5      C           24.93500000       20.65200000       10.77400000
      6      H           25.45090000       19.69480000       10.81030000
      7      C           23.72900000       20.55800000        9.85200000
      8      O           23.39000000       21.60200000        9.28900000
      9      C           24.42500000       21.02900000       12.16700000
     10      H           23.71780000       21.84760000       12.05410000
     11      H           23.89530000       20.18840000       12.61830000
     12      C           25.52500000       21.52600000       13.07000000
     13      C           25.82900000       22.87000000       13.27500000
     14      H           25.25220000       23.64270000       12.77230000
     15      C           26.29100000       20.56400000       13.73600000
     16      H           26.05260000       19.51750000       13.60050000
     17      C           26.87000000       23.24200000       14.13500000
     18      H           27.11480000       24.27860000       14.31890000
     19      C           27.32500000       20.87100000       14.57700000
     20      H           27.90650000       20.11710000       15.08730000
     21      C           27.57700000       22.23100000       14.75200000
     22      O           28.64800000       22.62000000       15.58200000
     23      H           29.28720000       21.90360000       15.76460000
     24      N           23.06800000       19.43000000        9.70400000
     25      H           23.33830000       18.61450000       10.23120000
     26      C           21.80100000       19.38100000        9.01700000
     27      H           21.73150000       20.20790000        8.31320000
     28      C           20.66700000       19.51900000       10.02100000
     29      O           20.66700000       18.95700000       11.08700000
     30      C           21.64800000       18.11400000        8.20800000
     31      H           21.80740000       17.26690000        8.87740000
     32      H           20.62060000       18.04850000        7.84920000
     33      C           22.55300000       17.96000000        7.03100000
     34      C           23.69800000       17.18800000        7.09500000
     35      H           23.94940000       16.67720000        8.01350000
     36      C           22.27100000       18.55600000        5.81600000
     37      H           21.36930000       19.14420000        5.71400000
     38      C           24.52000000       17.03900000        5.99100000
     39      H           25.40370000       16.42230000        6.05830000
     40      C           23.08000000       18.37700000        4.70900000
     41      H           22.80900000       18.82340000        3.76360000
     42      C           24.22900000       17.64700000        4.77800000
     43      O           24.97700000       17.47800000        3.66500000
     44      H           25.68680000       16.82570000        3.79650000
     45      N           19.66500000       20.30600000        9.62600000
     46      H           19.74180000       20.79890000        8.74040000
     47      C           18.47700000       20.53900000       10.43200000
     48      H           18.78170000       20.74340000       11.45620000
     49      C           17.53400000       19.32900000       10.39800000
     50      O           17.29400000       18.80400000        9.31100000
     51      C           17.77900000       21.77800000        9.90400000
     52      H           17.46630000       21.57440000        8.88380000
     53      H           18.49910000       22.59740000        9.86580000
     54      C           16.61200000       22.19400000       10.72300000
     55      O           15.53000000       21.61100000       10.65000000
     56      O           16.85400000       23.19700000       11.51200000
     57      N           17.02600000       18.88900000       11.52600000
     58      C           16.22300000       17.66000000       11.53700000
     59      H           16.75620000       16.85680000       11.02760000
     60      C           14.85200000       17.78800000       10.90700000
     61      O           14.26000000       16.75600000       10.57800000
     62      C           16.10100000       17.31900000       13.04700000
     63      H           15.14460000       16.85100000       13.28770000
     64      H           16.92730000       16.67420000       13.34980000
     65      C           16.24600000       18.63900000       13.68600000
     66      H           15.28670000       19.15940000       13.64980000
     67      H           16.56390000       18.54370000       14.72470000
     68      C           17.24300000       19.40700000       12.88900000
     69      H           17.04760000       20.47850000       12.95530000
     70      H           18.25310000       19.17220000       13.22510000
     71      N           14.33100000       19.01200000       10.80100000
     72      H           14.89450000       19.81340000       11.07880000
     73      C           13.04000000       19.28900000       10.21200000
     74      H           12.41920000       18.39320000       10.28060000
     75      C           13.13200000       19.59200000        8.73600000
     76      O           12.25800000       19.15000000        7.95300000
     77      C           12.28600000       20.42100000       10.96400000
     78      H           12.97740000       21.23610000       11.17650000
     79      H           11.50950000       20.82580000       10.31320000
     80      C           11.64500000       19.98200000       12.24100000
     81      H           11.28670000       20.88080000       12.74870000
     82      H           12.42500000       19.56170000       12.88100000
     83      C           10.49500000       19.01200000       12.16700000
     84      O           10.27800000       18.22100000       13.12700000
     85      O            9.75200000       19.06700000       11.16700000
     86      N           14.13700000       20.35100000        8.31400000
     87      H           14.76730000       20.73520000        9.01540000
     88      C           14.20000000       20.80600000        6.94100000
     89      H           13.24830000       20.64040000        6.43680000
     90      C           15.25500000       20.07200000        6.13500000
     91      O           15.24000000       20.13300000        4.90000000
     92      C           14.51100000       22.29000000        6.82400000
     93      H           14.48980000       22.59050000        5.77570000
     94      O           15.80200000       22.53400000        7.36800000
     95      H           15.69660000       22.64700000        8.31890000
     96      C           13.53600000       23.15200000        7.62600000
     97      H           13.62650000       22.95370000        8.69530000
     98      H           12.51390000       22.94380000        7.30970000
     99      H           13.75820000       24.20300000        7.44060000
    100      N           16.21600000       19.38500000        6.75100000
    101      H           16.21760000       19.33450000        7.76540000
    102      C           17.25600000       18.67600000        6.03900000
    103      H           17.79360000       18.05340000        6.75370000
    104      H           16.80420000       18.02580000        5.28890000
    105      C           18.25900000       19.55600000        5.36100000
    106      O           19.01500000       19.09100000        4.50600000
    107      N           18.36200000       20.80400000        5.69500000
    108      H           17.70720000       21.16910000        6.37890000
    109      C           19.24200000       21.76000000        5.12500000
    110      H           19.65560000       21.36330000        4.19840000
    111      C           20.41900000       22.02600000        6.07400000
    112      O           20.31700000       21.87200000        7.31300000
    113      C           18.55300000       23.07300000        4.76200000
    114      H           19.28940000       23.78860000        4.39550000
    115      O           17.90500000       23.60200000        5.92200000
    116      H           18.49430000       24.30170000        6.27040000
    117      C           17.49800000       22.87100000        3.68600000
    118      H           17.98050000       22.55270000        2.76290000
    119      H           16.78000000       22.11810000        4.00930000
    120      H           16.96780000       23.80550000        3.50600000
    121      N           21.51700000       22.41800000        5.51700000
    122      H           21.52690000       22.57580000        4.52270000
    123      C           22.76200000       22.68000000        6.24100000
    124      H           22.89030000       21.93300000        7.01860000
    125      C           22.68700000       24.06000000        6.86900000
    126      O           22.32100000       25.03100000        6.18500000
    127      C           23.92400000       22.60400000        5.30700000
    128      H           23.90300000       21.63760000        4.80050000
    129      H           23.82790000       23.37830000        4.54360000
    130      C           25.26700000       22.74500000        5.96900000
    131      C           26.02400000       23.84700000        6.06000000
    132      H           25.74670000       24.81890000        5.66780000
    133      C           25.97500000       21.70100000        6.64100000
    134      N           27.18000000       23.57100000        6.75000000
    135      H           27.92640000       24.22970000        6.96380000
    136      C           27.17800000       22.24500000        7.10000000
    137      C           25.74700000       20.34700000        6.89400000
    138      H           24.84120000       19.88960000        6.52210000
    139      C           28.12500000       21.49200000        7.78100000
    140      H           29.04970000       21.94950000        8.10170000
    141      C           26.67600000       19.59300000        7.57200000
    142      H           26.50110000       18.53640000        7.72550000
    143      C           27.86500000       20.17600000        8.02600000
    144      H           28.60350000       19.56920000        8.53380000
    145      N           23.05300000       24.18800000        8.13900000
    146      H           23.35910000       23.37940000        8.66480000
    147      C           23.13500000       25.46700000        8.79400000
    148      H           23.22630000       26.25900000        8.05210000
    149      C           24.38600000       25.59000000        9.64600000
    150      O           24.58500000       26.75000000       10.07000000
    151      C           21.86200000       25.75300000        9.63600000
    152      H           20.97920000       25.62690000        9.01010000
    153      H           21.88540000       26.79040000        9.97300000
    154      C           21.75400000       24.86000000       10.82100000
    155      C           22.19900000       25.20800000       12.10000000
    156      H           22.66450000       26.17940000       12.21720000
    157      C           21.20300000       23.58600000       10.71600000
    158      H           20.84740000       23.24780000        9.75100000
    159      C           22.10400000       24.38500000       13.18200000
    160      H           22.47200000       24.72200000       14.13810000
    161      C           21.11800000       22.74700000       11.80400000
    162      H           20.68910000       21.77060000       11.68830000
    163      C           21.56300000       23.12500000       13.05000000
    164      O           21.49900000       22.31500000       14.12800000
    165      H           21.74350000       22.78410000       14.92870000
    166      O           25.08400000       24.58700000        9.88400000
    167      O            7.81300000       17.74900000       10.93900000
    168      H            7.11850000       18.46830000       11.04410000
    169      H            8.74100000       18.24900000       11.09160000
    170      O           30.52700000       20.88900000       16.18600000
    171      H           30.56760000       20.58890000       17.15790000
    172      H           31.46180000       20.79230000       15.80100000
    173      O           20.81700000       19.78300000       13.73800000
    174      H           20.64600000       19.47320000       12.76950000
    175      H           21.06580000       20.78220000       13.73260000
    176      O           19.70600000       25.50400000        6.46000000
    177      H           19.60020000       26.17050000        7.21660000
    178      H           20.72230000       25.40130000        6.30020000
    179      O           19.24600000       16.79800000        3.13700000
    180      H           19.76320000       16.24450000        3.80540000
    181      H           19.12740000       17.73620000        3.54360000
    182      O           13.78200000       21.39200000        2.92100000
    183      H           14.28120000       20.75030000        3.54900000
    184      H           14.22620000       22.29460000        3.00950000
    185      O           27.07600000       15.68500000        3.84400000
    186      H           27.71950000       16.04480000        3.14580000
    187      H           27.38940000       14.75390000        4.09710000
    188      O           28.38300000       22.29800000       11.29600000
    189      H           29.36980000       22.13540000       11.46400000
    190      H           28.10110000       23.06840000       11.90180000
 $end 
