!*** FMO 5.5 (Gamess) INPUT generated by Facio 27.1.1.64 ***
 $CONTRL RUNTYP=ENERGY NPRINT=-5 ISPHER=1 MAXIT=50 $END
 $SYSTEM MWORDS=58 $END
 $GDDI NGROUP=1 $END
 $SCF DIRSCF=.TRUE. NPUNCH=0 $END
!*** NumCPU : 1  MemPerNode : 512MB
 $FMOPRP
    MODPAR=13
    PRTDST(3)=0.3
    NAODIR=180
    NGRFMO(1)=1, 1, 0, 0, 0,   0, 0, 0, 0, 0
    IPIEDA=1
    NPRINT=9
 $END
 $FMO
      SCFTYP(1)=RHF
      MODGRD=10
      MODMUL=0
      MAXCAO=5
      MAXBND=235
      NLAYER=1
      NFRAG=226
      ICHARG(1)=   1,  0,  0,  0,  0, -1,  0,  1, -1,  0,
                  -1,  0,  0,  0,  0,  0,  0,  0,  0, -1,
                  -1,  0, -1,  0,  0,  0,  0,  0,  0,  0,
                   0,  0, -1,  0,  0,  0,  0,  0,  0,  0,
                   1,  0,  0,  0,  0,  1,  1,  0,  1,  0,
                   1,  0,  0, -1,  1,  1,  0, -1,  0, -1,
                  -1,  0,  0, -1,  0,  0,  1, -1,  0, -1,
                   0,  0,  0,  1,  1,  0,  1,  0,  0,  1,
                  -1,  0,  0, -1,  0, -1,  0,  0,  0,  0,
                   1,  0,  1,  0,  0,  0,  0,  1,  0,  0,
                   0,  0,  0,  0,  0,  0,  0,  0,  1, -1,
                   0, -1,  0,  0,  0,  0,  0,  0,  1,  0,
                   0,  0,  0,  0,  0,  0,  0,  1,  0,  1,
                  -1,  1,  0,  1,  0,  0,  0,  0,  1,  0,
                   0, -1,  0,  0,  0,  0,  0,  1,  0,  0,
                   1,  0,  0,  0,  0,  0,  0,  0,  0,  0,
                   0,  0,  0,  0,  0,  0, -1,  0,  1,  0,
                  -1, -1,  0,  0,  0,  0,  0,  0,  0,  1,
                   0,  0,  1,  0,  1, -1,  0,  0,  0,  0,
                   0,  0,  0,  0,  0,  0,  0, -1,  0,  0,
                   1,  1,  0,  1,  0,  0,  0,  0,  0,  1,
                   0,  0,  0,  0,  0,  1,  0,  0, -1,  1,
                   0,  0,  1,  0,  0,  1
      FRGNAM(1)= Ile-1-Asp, Val-2, Gly-3, Gly-4, Gln-5, 
                 Glu-6, Cys-7-Cys, Lys-8, Asp-9, Gly-10, 
                 Glu-11, Pro-13, Trp-14, Gln-15, Ala-16, 
                 Leu-17, Leu-18, Ile-19, Asn-20, Glu-21, 
                 Glu-22, Asn-23, Glu-24, Gly-25, Phe-26, 
                 Cys-27-Cys, Gly-28-Gly, Gly-29, Thr-30, Ile-31, 
                 Leu-32, Ser-33, Glu-34, Phe-35-Ile, Tyr-36, 
                 Ile-37, Leu-38, Thr-39, Ala-40, Ala-41, 
                 His-42, Leu-44, Tyr-45, Gln-46, Ala-47, 
                 Lys-48, Arg-49, Phe-50, Lys-51, Val-52, 
                 Arg-53, Val-54, Gly-55, Asp-56, Arg-57, 
                 Asn-58-Arg, Thr-59, Glu-60, Gln-61, Glu-62, 
                 Glu-63, Gly-64, Gly-65, Glu-66, Ala-67, 
                 Val-68, His-69, Glu-70, Val-71, Glu-72, 
                 Val-73, Val-74, Ile-75, Lys-76, His-77, 
                 Asn-78, Arg-79, Phe-80, Thr-81, Lys-82, 
                 Glu-83, Thr-84, Tyr-85, Asp-86, Phe-87, 
                 Asp-88, Ile-89, Ala-90, Val-91, Leu-92, 
                 Arg-93, Leu-94, Lys-95, Thr-96, Pro-97, 
                 Thr-99, Phe-100, Arg-101, Met-102, Asn-103, 
                 Val-104, Ala-105, Pro-106, Ala-107, Cys-108, 
                 Leu-109, Pro-110, Glu-111-Trp, Arg-112, Asp-113, 
                 Ala-115, Glu-116, Ser-117, Thr-118, Leu-119, 
                 Met-120, Thr-121, Gln-122, Lys-123, Thr-124, 
                 Gly-125, Ile-126, Val-127, Ser-128, Gly-129, 
                 Phe-130, Gly-131, Arg-132, Thr-133, His-134, 
                 Glu-135, Lys-136, Gly-137, Arg-138, Gln-139, 
                 Ser-140, Thr-141, Leu-143, Lys-144, Met-145, 
                 Leu-146, Glu-147, Val-148, Pro-149, Tyr-150, 
                 Val-151, Asp-152-Ser, Arg-153, Asn-154, Cys-156-Cys, 
                 Lys-157, Leu-158, Ser-159, Ser-160, Ser-161, 
                 Phe-162, Ile-163, Ile-164, Thr-165, Gln-166, 
                 Asn-167, Met-168, Phe-169, Ala-171, Gly-172, 
                 Tyr-173, Asp-174, Thr-175, Lys-176, Gln-177, 
                 Glu-178, Asp-179, Ala-180, Cys-181-Cys, Gln-182, 
                 Gly-183, Ser-185, Gly-187, Pro-188, His-189, 
                 Val-190, Thr-191, Arg-192, Phe-193, Lys-194, 
                 Asp-195, Thr-196, Tyr-197, Phe-198, Val-199, 
                 Thr-200, Gly-201, Ile-202, Val-203, Ser-204, 
                 Trp-205, Gly-206, Glu-207, Gly-208, Ala-210, 
                 Arg-211, Lys-212, Gly-213, Lys-214, Tyr-215, 
                 Gly-216, Ile-217, Tyr-218, Thr-219, Lys-220, 
                 Val-221, Thr-222, Ala-223, Phe-224, Leu-225, 
                 Lys-226, Trp-227, Ile-228, Asp-229, Arg-230, 
                 Ser-231, Met-232, Lys-233, Thr-234, Arg-235, 
                 Frag1
      INDAT(1)= 0
                1      2      5    -21   2861   2862   2866   2867
             2870  -2877      0
                3      4     22     23     26    -37      0
               24     25     38     39     42    -44      0
               40     41     45     46     49    -51      0
               47     48     52     53     56    -68      0
               54     55     69     70     73    -83      0
               71     72     84     85     88    -94    138    139
              151    152    155   -161      0
               86     87     95     96     99   -116      0
               97     98    117    118    121   -128      0
              119    120    129    130    133   -135      0
              131    132    136    137    140   -150      0
              153    154    162    163    166   -175      0
              164    165    176    177    180   -199      0
              178    179    200    201    204   -216      0
              202    203    217    218    221   -226      0
              219    220    227    228    231   -245      0
              229    230    246    247    250   -264      0
              248    249    265    266    269   -283      0
              267    268    284    285    288   -297      0
              286    287    298    299    302   -312      0
              300    301    313    314    317   -327      0
              315    316    328    329    332   -341      0
              330    331    342    343    346   -356      0
              344    345    357    358    361   -363      0
              359    360    364    365    368   -383      0
              366    367    384    385    388   -394    602    603
              618    619    622   -628      0
              386    387    395    396    399   -401   2880   2881
             2889   2890   2893  -2895      0
              397    398    402    403    406   -408      0
              404    405    409    410    413   -422      0
              411    412    423    424    427   -441      0
              425    426    442    443    446   -460      0
              444    445    461    462    465   -471      0
              463    464    472    473    476   -486      0
              474    475    487    488    491   -506   1516   1517
             1528   1529   1532  -1546      0
              489    490    507    508    511   -527      0
              509    510    528    529    532   -546      0
              530    531    547    548    551   -565      0
              549    550    566    567    570   -579      0
              568    569    580    581    584   -589      0
              582    583    590    591    594   -599      0
              592    593    600    601    604   -617      0
              620    621    629    630    633   -647      0
              631    632    648    649    652   -668      0
              650    651    669    670    673   -685      0
              671    672    686    687    690   -695      0
              688    689    696    697    700   -717      0
              698    699    718    719    722   -741      0
              720    721    742    743    746   -761      0
              744    745    762    763    766   -783      0
              764    765    784    785    788   -799      0
              786    787    800    801    804   -823      0
              802    803    824    825    828   -839      0
              826    827    840    841    844   -846      0
              842    843    847    848    851   -858      0
              849    850    859    860    863   -882      0
              861    862    883    884    887   -896   2199   2200
             2211   2212   2215  -2234      0
              885    886    897    898    901   -910      0
              899    900    911    912    915   -925      0
              913    914    926    927    930   -942      0
              928    929    943    944    947   -957      0
              945    946    958    959    962   -972      0
              960    961    973    974    977   -979      0
              975    976    980    981    984   -986      0
              982    983    987    988    991  -1001      0
              989    990   1002   1003   1006  -1011      0
             1004   1005   1012   1013   1016  -1027      0
             1014   1015   1028   1029   1032  -1045      0
             1030   1031   1046   1047   1050  -1060      0
             1048   1049   1061   1062   1065  -1076      0
             1063   1064   1077   1078   1081  -1091      0
             1079   1080   1092   1093   1096  -1107      0
             1094   1095   1108   1109   1112  -1123      0
             1110   1111   1124   1125   1128  -1142      0
             1126   1127   1143   1144   1147  -1164      0
             1145   1146   1165   1166   1169  -1182      0
             1167   1168   1183   1184   1187  -1196      0
             1185   1186   1197   1198   1201  -1220      0
             1199   1200   1221   1222   1225  -1240      0
             1223   1224   1241   1242   1245  -1254      0
             1243   1244   1255   1256   1259  -1276      0
             1257   1258   1277   1278   1281  -1291      0
             1279   1280   1292   1293   1296  -1305      0
             1294   1295   1306   1307   1310  -1326      0
             1308   1309   1327   1328   1331  -1338      0
             1329   1330   1339   1340   1343  -1358      0
             1341   1342   1359   1360   1363  -1370      0
             1361   1362   1371   1372   1375  -1389      0
             1373   1374   1390   1391   1394  -1399      0
             1392   1393   1400   1401   1404  -1415      0
             1402   1403   1416   1417   1420  -1434      0
             1418   1419   1435   1436   1439  -1458      0
             1437   1438   1459   1460   1463  -1477      0
             1461   1462   1478   1479   1482  -1499      0
             1480   1481   1500   1501   1504  -1513      0
             1502   1503   1514   1515   1518  -1527      0
             1530   1531   1547   1548   1551  -1560      0
             1549   1550   1561   1562   1565  -1580      0
             1563   1564   1581   1582   1585  -1604      0
             1583   1584   1605   1606   1609  -1621      0
             1607   1608   1622   1623   1626  -1635      0
             1624   1625   1636   1637   1640  -1651      0
             1638   1639   1652   1653   1656  -1661      0
             1654   1655   1662   1663   1666  -1675      0
             1664   1665   1676   1677   1680  -1685      0
             1678   1679   1686   1687   1690  -1696      0
             1688   1689   1697   1698   1701  -1715      0
             1699   1700   1716   1717   1720  -1729      0
             1718   1719   1730   1731   1734  -1744   1771   1772
             1781   1782   1785  -1804      0
             1732   1733   1745   1746   1749  -1768      0
             1747   1748   1769   1770   1773  -1780      0
             1783   1784   1805   1806   1809  -1814      0
             1807   1808   1815   1816   1819  -1829      0
             1817   1818   1830   1831   1834  -1840      0
             1832   1833   1841   1842   1845  -1854      0
             1843   1844   1855   1856   1859  -1873      0
             1857   1858   1874   1875   1878  -1890      0
             1876   1877   1891   1892   1895  -1904      0
             1893   1894   1905   1906   1909  -1921      0
             1907   1908   1922   1923   1926  -1943      0
             1924   1925   1944   1945   1948  -1957      0
             1946   1947   1958   1959   1962  -1964      0
             1960   1961   1965   1966   1969  -1983      0
             1967   1968   1984   1985   1988  -1999      0
             1986   1987   2000   2001   2004  -2010      0
             2002   2003   2011   2012   2015  -2017      0
             2013   2014   2018   2019   2022  -2037      0
             2020   2021   2038   2039   2042  -2044      0
             2040   2041   2045   2046   2049  -2068      0
             2047   2048   2069   2070   2073  -2082      0
             2071   2072   2083   2084   2087  -2100      0
             2085   2086   2101   2102   2105  -2115      0
             2103   2104   2116   2117   2120  -2137      0
             2118   2119   2138   2139   2142  -2144      0
             2140   2141   2145   2146   2149  -2168      0
             2147   2148   2169   2170   2173  -2185      0
             2171   2172   2186   2187   2190  -2196      0
             2188   2189   2197   2198   2201  -2210      0
             2213   2214   2235   2236   2239  -2253      0
             2237   2238   2254   2255   2258  -2275      0
             2256   2257   2276   2277   2280  -2292      0
             2278   2279   2293   2294   2297  -2311      0
             2295   2296   2312   2313   2316  -2326      0
             2314   2315   2327   2328   2331  -2342      0
             2329   2330   2343   2344   2347  -2356      0
             2345   2346   2357   2358   2361  -2377      0
             2359   2360   2378   2379   2382  -2393      0
             2380   2381   2394   2395   2398  -2405   2432   2433
             2444   2445   2448  -2454      0
             2396   2397   2406   2407   2410  -2429      0
             2408   2409   2430   2431   2434  -2443      0
             2446   2447   2455   2456   2459  -2465   2662   2663
             2680   2681   2684  -2690      0
             2457   2458   2466   2467   2470  -2487      0
             2468   2469   2488   2489   2492  -2506      0
             2490   2491   2507   2508   2511  -2517      0
             2509   2510   2518   2519   2522  -2528      0
             2520   2521   2529   2530   2533  -2539      0
             2531   2532   2540   2541   2544  -2559      0
             2542   2543   2560   2561   2564  -2578      0
             2562   2563   2579   2580   2583  -2597      0
             2581   2582   2598   2599   2602  -2611      0
             2600   2601   2612   2613   2616  -2628      0
             2614   2615   2629   2630   2633  -2642      0
             2631   2632   2643   2644   2647  -2659      0
             2645   2646   2660   2661   2664  -2679      0
             2682   2683   2691   2692   2695  -2700      0
             2693   2694   2701   2702   2705  -2707      0
             2703   2704   2708   2709   2712  -2728      0
             2710   2711   2729   2730   2733  -2740      0
             2731   2732   2741   2742   2745  -2754      0
             2743   2744   2755   2756   2759  -2776      0
             2757   2758   2777   2778   2781  -2793      0
             2779   2780   2794   2795   2798  -2808      0
             2796   2797   2809   2810   2813  -2820      0
             2811   2812   2821   2822   2825  -2830      0
             2823   2824   2831   2832   2835  -2841   3229   3230
             3234   3235   3238  -3244      0
             2833   2834   2842   2843   2846  -2858      0
             2844   2845   2859   2860   2863  -2865      0
             2868   2869   2878   2879   2882  -2888      0
             2891   2892   2896   2897   2900  -2902      0
             2898   2899   2903   2904   2907  -2916      0
             2905   2906   2917   2918   2921  -2934      0
             2919   2920   2935   2936   2939  -2950      0
             2937   2938   2951   2952   2955  -2964      0
             2953   2954   2965   2966   2969  -2988      0
             2967   2968   2989   2990   2993  -3008      0
             2991   2992   3009   3010   3013  -3030      0
             3011   3012   3031   3032   3035  -3042      0
             3033   3034   3043   3044   3047  -3056      0
             3045   3046   3057   3058   3061  -3077      0
             3059   3060   3078   3079   3082  -3097      0
             3080   3081   3098   3099   3102  -3113      0
             3100   3101   3114   3115   3118  -3127      0
             3116   3117   3128   3129   3132  -3134      0
             3130   3131   3135   3136   3139  -3153      0
             3137   3138   3154   3155   3158  -3169      0
             3156   3157   3170   3171   3174  -3180      0
             3172   3173   3181   3182   3185  -3204      0
             3183   3184   3205   3206   3209  -3211      0
             3207   3208   3212   3213   3216  -3226      0
             3214   3215   3227   3228   3231  -3233      0
             3236   3237   3245   3246   3249  -3254      0
             3247   3248   3255   3256   3259  -3278      0
             3257   3258   3279   3280   3283  -3300      0
             3281   3282   3301   3302   3305  -3307      0
             3303   3304   3308   3309   3312  -3329      0
             3310   3311   3330   3331   3334  -3350      0
             3332   3333   3351   3352   3355  -3357      0
             3353   3354   3358   3359   3362  -3376      0
             3360   3361   3377   3378   3381  -3397      0
             3379   3380   3398   3399   3402  -3411      0
             3400   3401   3412   3413   3416  -3433      0
             3414   3415   3434   3435   3438  -3449      0
             3436   3437   3450   3451   3454  -3463      0
             3452   3453   3464   3465   3468  -3473      0
             3466   3467   3474   3475   3478  -3493      0
             3476   3477   3494   3495   3498  -3512      0
             3496   3497   3513   3514   3517  -3534      0
             3515   3516   3535   3536   3539  -3558      0
             3537   3538   3559   3560   3563  -3577      0
             3561   3562   3578   3579   3582  -3589      0
             3580   3581   3590   3591   3594  -3613      0
             3592   3593   3614   3615   3618  -3624      0
             3616   3617   3625   3626   3629  -3641      0
             3627   3628   3642   3643   3646  -3663      0
             3644   3645   3664   3665   3668  -3677      0
             3666   3667   3678  -3702      0
             3703  -3741      0
 $END
 $FMOHYB
 6-31G**     15   5
   1 0  -0.068254   0.305270   0.000003   0.000000   0.619132
         0.287030   0.000002   0.000000   0.307201  -0.022701
        -0.022701   0.042170   0.000000   0.000000   0.000000
   0 1  -0.068257   0.305303   0.583705   0.000000  -0.206360
         0.287057   0.289613   0.000000  -0.102393   0.034962
        -0.022700  -0.015495   0.000000  -0.023534   0.000000
   0 1  -0.068257   0.305306  -0.291851  -0.505502  -0.206358
         0.287061  -0.144805  -0.250811  -0.102392  -0.008284
         0.020546  -0.015495   0.028830   0.011767   0.020381
   0 1  -0.068257   0.305306  -0.291851   0.505502  -0.206358
         0.287061  -0.144805   0.250811  -0.102392  -0.008284
         0.020546  -0.015495  -0.028830   0.011767  -0.020381
   0 1   1.010732  -0.013164   0.000000   0.000000   0.000001
        -0.052063   0.000000   0.000000   0.000000  -0.001621
        -0.001621  -0.001620   0.000000   0.000000   0.000000
 $END
 $FMOBND
        -2         3  6-31G**
       -23        24  6-31G**
       -39        40  6-31G**
       -46        47  6-31G**
       -53        54  6-31G**
       -70        71  6-31G**
       -85        86  6-31G**
       -96        97  6-31G**
      -118       119  6-31G**
      -130       131  6-31G**
      -137       138  6-31G**
      -152       153  6-31G**
      -163       164  6-31G**
      -177       178  6-31G**
      -201       202  6-31G**
      -218       219  6-31G**
      -228       229  6-31G**
      -247       248  6-31G**
      -266       267  6-31G**
      -285       286  6-31G**
      -299       300  6-31G**
      -314       315  6-31G**
      -329       330  6-31G**
      -343       344  6-31G**
      -358       359  6-31G**
      -365       366  6-31G**
      -385       386  6-31G**
      -396       397  6-31G**
      -403       404  6-31G**
      -410       411  6-31G**
      -424       425  6-31G**
      -443       444  6-31G**
      -462       463  6-31G**
      -473       474  6-31G**
      -488       489  6-31G**
      -508       509  6-31G**
      -529       530  6-31G**
      -548       549  6-31G**
      -567       568  6-31G**
      -581       582  6-31G**
      -591       592  6-31G**
      -601       602  6-31G**
      -619       620  6-31G**
      -630       631  6-31G**
      -649       650  6-31G**
      -670       671  6-31G**
      -687       688  6-31G**
      -697       698  6-31G**
      -719       720  6-31G**
      -743       744  6-31G**
      -763       764  6-31G**
      -785       786  6-31G**
      -801       802  6-31G**
      -825       826  6-31G**
      -841       842  6-31G**
      -848       849  6-31G**
      -860       861  6-31G**
      -884       885  6-31G**
      -898       899  6-31G**
      -912       913  6-31G**
      -927       928  6-31G**
      -944       945  6-31G**
      -959       960  6-31G**
      -974       975  6-31G**
      -981       982  6-31G**
      -988       989  6-31G**
     -1003      1004  6-31G**
     -1013      1014  6-31G**
     -1029      1030  6-31G**
     -1047      1048  6-31G**
     -1062      1063  6-31G**
     -1078      1079  6-31G**
     -1093      1094  6-31G**
     -1109      1110  6-31G**
     -1125      1126  6-31G**
     -1144      1145  6-31G**
     -1166      1167  6-31G**
     -1184      1185  6-31G**
     -1198      1199  6-31G**
     -1222      1223  6-31G**
     -1242      1243  6-31G**
     -1256      1257  6-31G**
     -1278      1279  6-31G**
     -1293      1294  6-31G**
     -1307      1308  6-31G**
     -1328      1329  6-31G**
     -1340      1341  6-31G**
     -1360      1361  6-31G**
     -1372      1373  6-31G**
     -1391      1392  6-31G**
     -1401      1402  6-31G**
     -1417      1418  6-31G**
     -1436      1437  6-31G**
     -1460      1461  6-31G**
     -1479      1480  6-31G**
     -1501      1502  6-31G**
     -1515      1516  6-31G**
     -1529      1530  6-31G**
     -1548      1549  6-31G**
     -1562      1563  6-31G**
     -1582      1583  6-31G**
     -1606      1607  6-31G**
     -1623      1624  6-31G**
     -1637      1638  6-31G**
     -1653      1654  6-31G**
     -1663      1664  6-31G**
     -1677      1678  6-31G**
     -1687      1688  6-31G**
     -1698      1699  6-31G**
     -1717      1718  6-31G**
     -1731      1732  6-31G**
     -1746      1747  6-31G**
     -1770      1771  6-31G**
     -1782      1783  6-31G**
     -1806      1807  6-31G**
     -1816      1817  6-31G**
     -1831      1832  6-31G**
     -1842      1843  6-31G**
     -1856      1857  6-31G**
     -1875      1876  6-31G**
     -1892      1893  6-31G**
     -1906      1907  6-31G**
     -1923      1924  6-31G**
     -1945      1946  6-31G**
     -1959      1960  6-31G**
     -1966      1967  6-31G**
     -1985      1986  6-31G**
     -2001      2002  6-31G**
     -2012      2013  6-31G**
     -2019      2020  6-31G**
     -2039      2040  6-31G**
     -2046      2047  6-31G**
     -2070      2071  6-31G**
     -2084      2085  6-31G**
     -2102      2103  6-31G**
     -2117      2118  6-31G**
     -2139      2140  6-31G**
     -2146      2147  6-31G**
     -2170      2171  6-31G**
     -2187      2188  6-31G**
     -2198      2199  6-31G**
     -2212      2213  6-31G**
     -2236      2237  6-31G**
     -2255      2256  6-31G**
     -2277      2278  6-31G**
     -2294      2295  6-31G**
     -2313      2314  6-31G**
     -2328      2329  6-31G**
     -2344      2345  6-31G**
     -2358      2359  6-31G**
     -2379      2380  6-31G**
     -2395      2396  6-31G**
     -2407      2408  6-31G**
     -2431      2432  6-31G**
     -2445      2446  6-31G**
     -2456      2457  6-31G**
     -2467      2468  6-31G**
     -2489      2490  6-31G**
     -2508      2509  6-31G**
     -2519      2520  6-31G**
     -2530      2531  6-31G**
     -2541      2542  6-31G**
     -2561      2562  6-31G**
     -2580      2581  6-31G**
     -2599      2600  6-31G**
     -2613      2614  6-31G**
     -2630      2631  6-31G**
     -2644      2645  6-31G**
     -2661      2662  6-31G**
     -2681      2682  6-31G**
     -2692      2693  6-31G**
     -2702      2703  6-31G**
     -2709      2710  6-31G**
     -2730      2731  6-31G**
     -2742      2743  6-31G**
     -2756      2757  6-31G**
     -2778      2779  6-31G**
     -2795      2796  6-31G**
     -2810      2811  6-31G**
     -2822      2823  6-31G**
     -2832      2833  6-31G**
     -2843      2844  6-31G**
     -2860      2861  6-31G**
     -2867      2868  6-31G**
     -2879      2880  6-31G**
     -2890      2891  6-31G**
     -2897      2898  6-31G**
     -2904      2905  6-31G**
     -2918      2919  6-31G**
     -2936      2937  6-31G**
     -2952      2953  6-31G**
     -2966      2967  6-31G**
     -2990      2991  6-31G**
     -3010      3011  6-31G**
     -3032      3033  6-31G**
     -3044      3045  6-31G**
     -3058      3059  6-31G**
     -3079      3080  6-31G**
     -3099      3100  6-31G**
     -3115      3116  6-31G**
     -3129      3130  6-31G**
     -3136      3137  6-31G**
     -3155      3156  6-31G**
     -3171      3172  6-31G**
     -3182      3183  6-31G**
     -3206      3207  6-31G**
     -3213      3214  6-31G**
     -3228      3229  6-31G**
     -3235      3236  6-31G**
     -3246      3247  6-31G**
     -3256      3257  6-31G**
     -3280      3281  6-31G**
     -3302      3303  6-31G**
     -3309      3310  6-31G**
     -3331      3332  6-31G**
     -3352      3353  6-31G**
     -3359      3360  6-31G**
     -3378      3379  6-31G**
     -3399      3400  6-31G**
     -3413      3414  6-31G**
     -3435      3436  6-31G**
     -3451      3452  6-31G**
     -3465      3466  6-31G**
     -3475      3476  6-31G**
     -3495      3496  6-31G**
     -3514      3515  6-31G**
     -3536      3537  6-31G**
     -3560      3561  6-31G**
     -3579      3580  6-31G**
     -3591      3592  6-31G**
     -3615      3616  6-31G**
     -3626      3627  6-31G**
     -3643      3644  6-31G**
     -3665      3666  6-31G**
 $END
 $DATA
 FMO calculation : 1ioe_prepared_H.pdb
 C1 
 N.1-1    7
      N31 6
      d 1
      1 0.800 1.0
    
 C.1-1    6
      N31 6
      d 1
      1 0.800 1.0
    
 O.1-1    8
      N31 6
      d 1
      1 0.800 1.0
    
 H.1-1    1
      N31 6
      p 1
      1 1.100 1.0
    
 S.1-1   16
      N31 6
      d 1
      1 0.650 1.0
    
 Ca.1-1  20
      N31 6
      d 1
      1 0.200 1.0
    
 Cl.1-1  17
      N31 6
      d 1
      1 0.750 1.0
    
 $END
 $FMOXYZ
      1      N           14.632       30.818        9.661
      2      C           14.018       31.974       10.368
      3      C           13.730       33.100        9.364
      4      O           14.647       33.703        8.806
      5      C           14.969       32.520       11.482
      6      C           15.574       31.366       12.286
      7      C           14.205       33.454       12.418
      8      C           14.595       30.671       13.192
      9      H           15.729       30.858        9.770
     10      H           14.370       30.858        8.590
     11      H           14.255       29.876       10.095
     12      H           13.055       31.626       10.837
     13      H           15.795       33.101       10.983
     14      H           16.417       31.732       12.900
     15      H           16.009       30.614       11.603
     16      H           13.524       34.092       11.829
     17      H           14.918       34.092       12.968
     18      H           13.618       32.857       13.138
     19      H           13.567       30.961       12.918
     20      H           14.789       30.961       14.239
     21      H           14.707       29.578       13.088
     22      N           12.451       33.375        9.130
     23      C           12.062       34.437        8.214
     24      C           11.929       35.712        9.030
     25      O           11.118       35.780        9.952
     26      C           10.716       34.136        7.556
     27      C           10.427       35.176        6.492
     28      C           10.722       32.737        6.973
     29      H           11.677       32.797        9.631
     30      H           12.869       34.541        7.435
     31      H            9.921       34.173        8.353
     32      H           11.319       35.808        6.341
     33      H            9.581       35.808        6.812
     34      H           10.169       34.673        5.544
     35      H           11.628       32.596        6.360
     36      H            9.828       32.596        6.341
     37      H           10.714       31.995        7.791
     38      N           12.713       36.727        8.692
     39      C           12.656       37.953        9.468
     40      C           13.411       37.703       10.762
     41      O           14.344       36.898       10.794
     42      H           13.397       36.665        7.849
     43      H           11.604       38.237        9.653
     44      H           13.092       38.789        8.891
     45      N           13.024       38.374       11.836
     46      C           13.715       38.154       13.091
     47      C           15.113       38.728       13.079
     48      O           15.599       39.155       12.035
     49      H           12.202       39.085       11.801