!*** FMO 5.5 (Gamess) INPUT generated by Facio 27.1.1.64 ***
 $CONTRL RUNTYP=ENERGY NPRINT=-5 ISPHER=1 MAXIT=50 $END
 $SYSTEM MWORDS=58 $END
 $GDDI NGROUP=1 $END
 $SCF DIRSCF=.TRUE. NPUNCH=0 $END
!*** NumCPU : 1  MemPerNode : 512MB
 $FMOPRP
    MODPAR=13
    PRTDST(3)=0.3
    NAODIR=200
    NGRFMO(1)=1, 1, 0, 0, 0,   0, 0, 0, 0, 0
    IPIEDA=1
    NPRINT=9
 $END
 $FMO
      SCFTYP(1)=RHF
      MODGRD=10
      MODMUL=0
      MAXCAO=5
      MAXBND=569
      NLAYER=1
      NFRAG=833
      ICHARG(1)=   1, -1,  0,  0,  0, -1,  1,  1,  0,  0,
                   0, -1,  0, -1,  0,  0,  1,  0, -1,  1,
                   1,  0,  0,  1,  1,  0,  1, -1,  0,  0,
                  -1,  0,  1,  0,  0,  1,  0, -1,  0,  0,
                   1,  0, -1,  0, -1,  0, -1,  0,  0,  0,
                  -1,  0,  0,  0,  0,  1,  0,  0,  1,  0,
                  -1,  0,  1,  0,  0, -1,  0,  1,  1, -1,
                   0, -1,  0,  0,  1,  0,  0,  0,  1, -1,
                   0,  0,  0,  1,  0,  1,  0,  0,  0,  0,
                  -1,  0,  0,  0,  0,  1,  0,  0,  0, -1,
                   0,  0,  0,  0,  0,  0,  0,  1, -1,  0,
                   0,  0,  1,  0,  1,  0,  1,  0,  0,  0,
                   1,  0,  0,  0,  1,  0,  0,  0,  0,  0,
                   0,  1,  0,  0, -1,  0,  0,  0,  0,  1,
                   0,  0,  0,  1,  1, -1,  0,  0,  0,  1,
                   0,  0,  0,  0, -1,  0, -1,  1,  0,  0,
                   1,  0,  0, -1,  0,  0,  0,  0,  1,  0,
                   0, -1,  0, -1,  1, -3,  0,  1, -1, -1,
                   1, -1,  0,  0,  0,  0,  0,  0,  0,  0,
                  -1,  0,  0,  0,  0,  0,  1,  0,  0,  0,
                   0,  0, -1,  0,  0,  0,  0,  0,  0,  0,
                   0,  1, -1,  0,  0,  0,  0,  0, -1,  0,
                  -1,  0,  0,  0,  0,  0,  0,  0,  0,  1,
                   0,  0,  0,  0,  0,  1,  0,  0,  0,  0,
                   0,  0,  1,  0,  0,  0,  0,  0,  1, -1,
                   0,  1,  1,  0,  0,  0,  0,  0,  0,  0,
                   0, -1, -1,  0,  0,  0,  0,  0,  1,  1,
                   0,  0, -1,  0,  0,  0,  0,  0,  1,  0,
                   0,  0,  0,  0,  0,  0, -1,  0,  0, -1,
                   0,  0,  0,  1,  1, -1,  0,  0,  1,  0,
                  -1,  1,  1,  0,  0,  1,  1,  0,  1, -1,
                   0,  0, -1,  0,  1,  0,  0,  1,  0, -1,
                   0,  0,  1,  0, -1,  0, -1,  0, -1,  0,
                   0,  0, -1,  0,  0,  0,  0,  1,  0,  0,
                   1,  0, -1,  0,  0,  1,  0,  0, -1,  0,
                   1,  1, -1,  0, -1,  0,  0,  1,  0,  0,
                   0,  1, -1,  0,  0,  0,  1,  0,  1,  0,
                   0,  0,  0, -1,  0,  0,  0,  0,  1,  0,
                   0,  0, -1,  0,  0,  0,  0,  0,  0,  0,
                   1, -1,  0,  0,  0,  1,  0,  1,  0,  1,
                   0,  0,  0,  1,  0,  0,  0,  1,  0,  0,
                   0,  0,  0,  0,  1,  0,  0, -1,  0,  0,
                   0,  0,  1,  0,  0,  0,  1,  1, -1,  0,
                   0,  0,  1,  0,  0,  0,  0, -1,  0, -1,
                   1,  0,  0,  1,  0,  0, -1,  0,  0,  0,
                   0,  1,  0,  0, -1,  1, -3,  0,  1, -1,
                  -1,  1, -1,  0,  0,  0,  0,  0,  0,  0,
                   0, -1,  0,  0,  0,  0,  0,  1,  0,  0,
                   0,  0,  0, -1,  0,  0,  0,  0,  0,  0,
                   0,  0,  1, -1,  0,  0,  0,  0,  0, -1,
                   0, -1,  0,  0,  0,  0,  0,  0,  0,  0,
                   1,  0,  0,  0,  0,  0,  1,  0,  0,  0,
                   0,  0,  0,  1,  0,  0,  0,  0,  0,  1,
                  -1,  0,  1,  1,  0,  0,  0,  0,  0,  0,
                   0,  0, -1, -1,  0,  0,  0,  0,  0,  1,
                   1,  0,  0, -1,  0,  0,  0,  0,  0,  1,
                   0,  0,  0,  0,  0,  0,  0, -1,  0,  0,
                  -1,  0,  0,  0,  1,  0,  0,  0,  0,  0,
                   0,  0,  0,  0,  0,  0,  0,  0,  0,  0,
                   0,  0,  0,  0,  0,  0,  0,  0,  0,  0,
                   0,  0,  0,  0,  0,  0,  0,  0,  0,  0,
                   0,  0,  0,  0,  0,  0,  0,  0,  0,  0,
                   0,  0,  0,  0,  0,  0,  0,  0,  0,  0,
                   0,  0,  0,  0,  0,  0,  0,  0,  0,  0,
                   0,  0,  0,  0,  0,  0,  0,  0,  0,  0,
                   0,  0,  0,  0,  0,  0,  0,  0,  0,  0,
                   0,  0,  0,  0,  0,  0,  0,  0,  0,  0,
                   0,  0,  0,  0,  0,  0,  0,  0,  0,  0,
                   0,  0,  0,  0,  0,  0,  0,  0,  0,  0,
                   0,  0,  0,  0,  0,  0,  0,  0,  0,  0,
                   0,  0,  0,  0,  0,  0,  0,  0,  0,  0,
                   0,  0,  0,  0,  0,  0,  0,  0,  0,  0,
                   0,  0,  0,  0,  0,  0,  0,  0,  0,  0,
                   0,  0,  0,  0,  0,  0,  0,  0,  0,  0,
                   0,  0,  0,  0,  0,  0,  0,  0,  0,  0,
                   0,  0,  0,  0,  0,  0,  0,  0,  0,  0,
                   0,  0,  0,  0,  0,  0,  0,  0,  0,  0,
                   0,  0,  0,  0,  0,  0,  0,  0,  0,  0,
                   0,  0,  0,  0,  0,  0,  0,  0,  0,  0,
                   0,  0,  0,  0,  0,  0,  0,  0,  0,  0,
                   0,  0,  0,  0,  0,  0,  0,  0,  0,  0,
                   0,  0,  0,  0,  0,  0,  0,  0,  0,  0,
                   0,  0,  0,  0,  0,  0,  0,  0,  0,  0,
                   0,  0,  0
      FRGNAM(1)= Gly-1, Asp-2, Ile-3, Val-4, Ser-5, 
                 Glu-6, Lys-7, Lys-8, Pro-9, Ala-10, 
                 Thr-11, Glu-12, Val-13, Asp-14, Pro-15, 
                 Thr-16, His-17, Phe-18, Glu-19, Lys-20, 
                 Arg-21, Phe-22, Leu-23, Lys-24, Arg-25, 
                 Ile-26, Arg-27, Asp-28, Leu-29, Gly-30, 
                 Glu-31, Gly-32, His-33, Phe-34, Gly-35, 
                 Lys-36, Val-37, Glu-38, Leu-39, Cys-40, 
                 Arg-41, Tyr-42, Asp-43, Pro-44, Glu-45, 
                 Gly-46, Asp-47, Asn-48, Thr-49, Gly-50, 
                 Glu-51, Gln-52, Val-53, Ala-54, Val-55, 
                 Lys-56, Ser-57, Leu-58, Lys-59, Pro-60, 
                 Glu-61, Asn-62, His-63, Ile-64, Ala-65, 
                 Asp-66, Leu-67, Lys-68, Lys-69, Glu-70, 
                 Ile-71, Glu-72, Ile-73, Leu-74, Arg-75, 
                 Asn-76, Leu-77, Tyr-78, His-79, Glu-80, 
                 Asn-81, Ile-82, Val-83, Lys-84, Tyr-85, 
                 Lys-86, Gly-87, Ile-88, Cys-89, Thr-90, 
                 Glu-91, Gly-92, Asn-93, Gly-94, Ile-95, 
                 Lys-96, Leu-97, Ile-98, Met-99, Glu-100, 
                 Phe-101, Leu-102, Pro-103, Ser-104, Gly-105, 
                 Ser-106, Leu-107, Lys-108, Glu-109, Tyr-110, 
                 Leu-111, Pro-112, Lys-113, Asn-114, Lys-115, 
                 Asn-116, Lys-117, Ile-118, Asn-119, Leu-120, 
                 Lys-121, Gln-122, Gln-123, Leu-124, Lys-125, 
                 Tyr-126, Ala-127, Val-128, Gln-129, Ile-130, 
                 Cys-131, Lys-132, Gly-133, Met-134, Asp-135, 
                 Tyr-136, Leu-137, Gly-138, Ser-139, Arg-140, 
                 Gln-141, Tyr-142, Val-143, His-144, Arg-145, 
                 Asp-146, Leu-147, Ala-148, Ala-149, Arg-150, 
                 Asn-151, Val-152, Leu-153, Val-154, Glu-155, 
                 Ser-156, Glu-157, His-158, Gln-159, Val-160, 
                 Lys-161, Ile-162, Gly-163, Asp-164, Phe-165, 
                 Gly-166, Leu-167, Thr-168, Lys-169, Ala-170, 
                 Ile-171, Glu-172, Thr-173, Asp-174, Lys-175, 
                 Glu-176-Thr, Val-178, Lys-179, Asp-180, Asp-181, 
                 Arg-182, Asp-183, Ser-184, Pro-185, Val-186, 
                 Phe-187, Trp-188, Tyr-189, Ala-190, Pro-191, 
                 Glu-192, Cys-193, Leu-194, Met-195, Gln-196, 
                 Ser-197, Lys-198, Phe-199, Tyr-200, Ile-201, 
                 Ala-202, Ser-203, Asp-204, Val-205, Trp-206, 
                 Ser-207, Phe-208, Gly-209, Val-210, Thr-211, 
                 Leu-212, His-213, Glu-214, Leu-215, Leu-216, 
                 Thr-217, Tyr-218, Cys-219, Asp-220, Ser-221, 
                 Asp-222, Ser-223, Ser-224, Pro-225, Met-226, 
                 Ala-227, Leu-228, Phe-229, Leu-230, Lys-231, 
                 Met-232, Ile-233, Gly-234, Pro-235, Thr-236, 
                 His-237, Gly-238, Gln-239, Met-240, Thr-241, 
                 Val-242, Thr-243, Arg-244, Leu-245, Val-246, 
                 Asn-247, Thr-248, Leu-249, Lys-250, Glu-251, 
                 Gly-252, Lys-253, Arg-254, Leu-255, Pro-256, 
                 Cys-257, Pro-258, Pro-259, Asn-260, Cys-261, 
                 Pro-262, Asp-263, Glu-264, Val-265, Tyr-266, 
                 Gln-267, Leu-268, Met-269, Arg-270, Lys-271, 
                 Cys-272, Trp-273, Glu-274, Phe-275, Gln-276, 
                 Pro-277, Ser-278, Asn-279, Arg-280, Thr-281, 
                 Ser-282, Phe-283, Gln-284, Asn-285, Leu-286, 
                 Ile-287, Glu-288, Gly-289, Phe-290, Glu-291, 
                 Ala-292, Leu-293, Leu-294, Lys-295, Val-296, 
                 Asp-297, Pro-298, Thr-299, His-300, Phe-301, 
                 Glu-302, Lys-303, Arg-304, Phe-305, Leu-306, 
                 Lys-307, Arg-308, Ile-309, Arg-310, Asp-311, 
                 Leu-312, Gly-313, Glu-314, Gly-315, His-316, 
                 Phe-317, Gly-318, Lys-319, Val-320, Glu-321, 
                 Leu-322, Cys-323, Arg-324, Tyr-325, Asp-326, 
                 Pro-327, Glu-328, Gly-329, Asp-330, Asn-331, 
                 Thr-332, Gly-333, Glu-334, Gln-335, Val-336, 
                 Ala-337, Val-338, Lys-339, Ser-340, Leu-341, 
                 Lys-342, Pro-343, Glu-344, Gly-345, Asn-346, 
                 His-347, Ile-348, Ala-349, Asp-350, Leu-351, 
                 Lys-352, Lys-353, Glu-354, Ile-355, Glu-356, 
                 Ile-357, Leu-358, Arg-359, Asn-360, Leu-361, 
                 Tyr-362, His-363, Glu-364, Asn-365, Ile-366, 
                 Val-367, Lys-368, Tyr-369, Lys-370, Gly-371, 
                 Ile-372, Cys-373, Thr-374, Glu-375, Gly-376, 
                 Asn-377, Gly-378, Ile-379, Lys-380, Leu-381, 
                 Ile-382, Met-383, Glu-384, Phe-385, Leu-386, 
                 Pro-387, Ser-388, Gly-389, Ser-390, Leu-391, 
                 Lys-392, Glu-393, Tyr-394, Leu-395, Pro-396, 
                 Lys-397, Asn-398, Lys-399, Asn-400, Lys-401, 
                 Ile-402, Asn-403, Leu-404, Lys-405, Gln-406, 
                 Gln-407, Leu-408, Lys-409, Tyr-410, Ala-411, 
                 Val-412, Gln-413, Ile-414, Cys-415, Lys-416, 
                 Gly-417, Met-418, Asp-419, Tyr-420, Leu-421, 
                 Gly-422, Ser-423, Arg-424, Gln-425, Tyr-426, 
                 Val-427, His-428, Arg-429, Asp-430, Leu-431, 
                 Ala-432, Ala-433, Arg-434, Asn-435, Val-436, 
                 Leu-437, Val-438, Glu-439, Ser-440, Glu-441, 
                 His-442, Gln-443, Val-444, Lys-445, Ile-446, 
                 Gly-447, Asp-448, Phe-449, Gly-450, Leu-451, 
                 Thr-452, Lys-453, Ala-454, Ile-455, Glu-456, 
                 Lys-457, Glu-458-Thr, Val-460, Lys-461, Asp-462, 
                 Asp-463, Arg-464, Asp-465, Ser-466, Pro-467, 
                 Val-468, Phe-469, Trp-470, Tyr-471, Ala-472, 
                 Pro-473, Glu-474, Cys-475, Leu-476, Met-477, 
                 Gln-478, Ser-479, Lys-480, Phe-481, Tyr-482, 
                 Ile-483, Ala-484, Ser-485, Asp-486, Val-487, 
                 Trp-488, Ser-489, Phe-490, Gly-491, Val-492, 
                 Thr-493, Leu-494, His-495, Glu-496, Leu-497, 
                 Leu-498, Thr-499, Tyr-500, Cys-501, Asp-502, 
                 Ser-503, Asp-504, Ser-505, Ser-506, Pro-507, 
                 Met-508, Ala-509, Leu-510, Phe-511, Leu-512, 
                 Lys-513, Met-514, Ile-515, Gly-516, Pro-517, 
                 Thr-518, His-519, Gly-520, Gln-521, Met-522, 
                 Thr-523, Val-524, Thr-525, Arg-526, Leu-527, 
                 Val-528, Asn-529, Thr-530, Leu-531, Lys-532, 
                 Glu-533, Gly-534, Lys-535, Arg-536, Leu-537, 
                 Pro-538, Cys-539, Pro-540, Pro-541, Asn-542, 
                 Cys-543, Pro-544, Asp-545, Glu-546, Val-547, 
                 Tyr-548, Gln-549, Leu-550, Met-551, Arg-552, 
                 Lys-553, Cys-554, Trp-555, Glu-556, Phe-557, 
                 Gln-558, Pro-559, Ser-560, Asn-561, Arg-562, 
                 Thr-563, Ser-564, Phe-565, Gln-566, Asn-567, 
                 Leu-568, Ile-569, Glu-570, Gly-571, Phe-572, 
                 Glu-573, Ala-574, Leu-575, Leu-576, Lys-577, 
                 Frag1, Frag2, Frag3, Frag4, Frag5, 
                 Frag6, Frag7, Frag8, Frag9, Frag10, 
                 Frag11, Frag12, Frag13, Frag14, Frag15, 
                 Frag16, Frag17, Frag18, Frag19, Frag20, 
                 Frag21, Frag22, Frag23, Frag24, Frag25, 
                 Frag26, Frag27, Frag28, Frag29, Frag30, 
                 Frag31, Frag32, Frag33, Frag34, Frag35, 
                 Frag36, Frag37, Frag38, Frag39, Frag40, 
                 Frag41, Frag42, Frag43, Frag44, Frag45, 
                 Frag46, Frag47, Frag48, Frag49, Frag50, 
                 Frag51, Frag52, Frag53, Frag54, Frag55, 
                 Frag56, Frag57, Frag58, Frag59, Frag60, 
                 Frag61, Frag62, Frag63, Frag64, Frag65, 
                 Frag66, Frag67, Frag68, Frag69, Frag70, 
                 Frag71, Frag72, Frag73, Frag74, Frag75, 
                 Frag76, Frag77, Frag78, Frag79, Frag80, 
                 Frag81, Frag82, Frag83, Frag84, Frag85, 
                 Frag86, Frag87, Frag88, Frag89, Frag90, 
                 Frag91, Frag92, Frag93, Frag94, Frag95, 
                 Frag96, Frag97, Frag98, Frag99, Frag100, 
                 Frag101, Frag102, Frag103, Frag104, Frag105, 
                 Frag106, Frag107, Frag108, Frag109, Frag110, 
                 Frag111, Frag112, Frag113, Frag114, Frag115, 
                 Frag116, Frag117, Frag118, Frag119, Frag120, 
                 Frag121, Frag122, Frag123, Frag124, Frag125, 
                 Frag126, Frag127, Frag128, Frag129, Frag130, 
                 Frag131, Frag132, Frag133, Frag134, Frag135, 
                 Frag136, Frag137, Frag138, Frag139, Frag140, 
                 Frag141, Frag142, Frag143, Frag144, Frag145, 
                 Frag146, Frag147, Frag148, Frag149, Frag150, 
                 Frag151, Frag152, Frag153, Frag154, Frag155, 
                 Frag156, Frag157, Frag158, Frag159, Frag160, 
                 Frag161, Frag162, Frag163, Frag164, Frag165, 
                 Frag166, Frag167, Frag168, Frag169, Frag170, 
                 Frag171, Frag172, Frag173, Frag174, Frag175, 
                 Frag176, Frag177, Frag178, Frag179, Frag180, 
                 Frag181, Frag182, Frag183, Frag184, Frag185, 
                 Frag186, Frag187, Frag188, Frag189, Frag190, 
                 Frag191, Frag192, Frag193, Frag194, Frag195, 
                 Frag196, Frag197, Frag198, Frag199, Frag200, 
                 Frag201, Frag202, Frag203, Frag204, Frag205, 
                 Frag206, Frag207, Frag208, Frag209, Frag210, 
                 Frag211, Frag212, Frag213, Frag214, Frag215, 
                 Frag216, Frag217, Frag218, Frag219, Frag220, 
                 Frag221, Frag222, Frag223, Frag224, Frag225, 
                 Frag226, Frag227, Frag228, Frag229, Frag230, 
                 Frag231, Frag232, Frag233, Frag234, Frag235, 
                 Frag236, Frag237, Frag238, Frag239, Frag240, 
                 Frag241, Frag242, Frag243, Frag244, Frag245, 
                 Frag246, Frag247, Frag248, Frag249, Frag250, 
                 Frag251, Frag252, Frag253, Frag254, Frag255, 
                 Frag256, Frag257, Frag258
      INDAT(1)= 0
                1      2      5     -9      0
                3      4     10     11     14    -21      0
               12     13     22     23     26    -40      0
               24     25     41     42     45    -56      0
               43     44     57     58     61    -67      0
               59     60     68     69     72    -82      0
               70     71     83     84     87   -104      0
               85     86    105    106    109   -126      0
              107    108    127    128    131   -140      0
              129    130    141    142    145   -150      0
              143    144    151    152    155   -164      0
              153    154    165    166    169   -179      0
              167    168    180    181    184   -195      0
              182    183    196    197    200   -207      0
              198    199    208    209    212   -221      0
              210    211    222    223    226   -235      0
              224    225    236    237    240   -253      0
              238    239    254    255    258   -273      0
              256    257    274    275    278   -288      0
              276    277    289    290    293   -310      0
              291    292    311    312    315   -334      0
              313    314    335    336    339   -354      0
              337    338    355    356    359   -373      0
              357    358    374    375    378   -395      0
              376    377    396    397    400   -419      0
              398    399    420    421    424   -438      0
              422    423    439    440    443   -462      0
              441    442    463    464    467   -474      0
              465    466    475    476    479   -493      0
              477    478    494    495    498   -500      0
              496    497    501    502    505   -515      0
              503    504    516    517    520   -522      0
              518    519    523    524    527   -540      0
              525    526    541    542    545   -560      0
              543    544    561    562    565   -567      0
              563    564    568    569    572   -589      0
              570    571    590    591    594   -605      0
              592    593    606    607    610   -620      0
              608    609    621    622    625   -639      0
              623    624    640    641    644   -650      0
              642    643    651    652    655   -674      0
              653    654    675    676    679   -695      0
              677    678    696    697    700   -707      0
              698    699    708    709    712   -721      0
              710    711    722    723    726   -736      0
              724    725    737    738    741   -743      0
              739    740    744    745    748   -755      0
              746    747    756    757    760   -769      0
              758    759    770    771    774   -783      0
              772    773    784    785    788   -790      0
              786    787    791    792    795   -805      0
              793    794    806    807    810   -822      0
              808    809    823    824    827   -838      0
              825    826    839    840    843   -848      0
              841    842    849    850    853   -864      0
              851    852    865    866    869   -886      0
              867    868    887    888    891   -897      0
              889    890    898    899    902   -916      0
              900    901    917    918    921   -938      0
              919    920    939    940    943   -952      0
              941    942    953   -967      0
              968    969    972   -981      0
              970    971    982    983    986   -999      0
              984    985   1000   1001   1004  -1018      0
             1002   1003   1019   1020   1023  -1028      0
             1021   1022   1029   1030   1033  -1040      0
             1031   1032   1041   1042   1045  -1059      0
             1043   1044   1060   1061   1064  -1081      0
             1062   1063   1082   1083   1086  -1103      0
             1084   1085   1104   1105   1108  -1118      0
             1106   1107   1119   1120   1123  -1137      0
             1121   1122   1138   1139   1142  -1152      0
             1140   1141   1153   1154   1157  -1171      0
             1155   1156   1172   1173   1176  -1190      0
             1174   1175   1191   1192   1195  -1214      0
             1193   1194   1215   1216   1219  -1228      0
             1217   1218   1229   1230   1233  -1247      0
             1231   1232   1248   1249   1252  -1268      0
             1250   1251   1269   1270   1273  -1286      0
             1271   1272   1287   1288   1291  -1301      0
             1289   1290   1302   1303   1306  -1315      0
             1304   1305   1316   1317   1320  -1334      0
             1318   1319   1335   1336   1339  -1350      0
             1337   1338   1351   1352   1355  -1372      0
             1353   1354   1373   1374   1377  -1393      0
             1375   1376   1394   1395   1398  -1415      0
             1396   1397   1416   1417   1420  -1422      0
             1418   1419   1423   1424   1427  -1441      0
             1425   1426   1442   1443   1446  -1452      0
             1444   1445   1453   1454   1457  -1466      0
             1455   1456   1467  -1481      0
             1482   1483   1486  -1488      0
             1484   1485   1489   1490   1493  -1502      0
             1491   1492   1503   1504   1507  -1509      0
             1505   1506   1510   1511   1514  -1528      0
             1512   1513   1529   1530   1533  -1550      0
             1531   1532   1551   1552   1555  -1569      0
             1553   1554   1570   1571   1574  -1588      0
             1572   1573   1589   1590   1593  -1605      0
             1591   1592   1606   1607   1610  -1620      0
             1608   1609   1621   1622   1625  -1640      0
             1623   1624   1641   1642   1645  -1659      0
             1643   1644   1660   1661   1664  -1673      0
             1662   1663   1674   1675   1678  -1684      0
             1676   1677   1685   1686   1689  -1691      0
             1687   1688   1692   1693   1696  -1702      0
             1694   1695   1703   1704   1707  -1721      0
             1705   1706   1722   1723   1726  -1743      0
             1724   1725   1744   1745   1748  -1758      0
             1746   1747   1759   1760   1763  -1779      0
             1761   1762   1780   1781   1784  -1798      0
             1782   1783   1799   1800   1803  -1812      0
             1801   1802   1813   1814   1817  -1834      0
             1815   1816   1835   1836   1839  -1848      0
             1837   1838   1849   1850   1853  -1870      0
             1851   1852   1871   1872   1875  -1884      0
             1873   1874   1885   1886   1889  -1906      0
             1887   1888   1907   1908   1911  -1925      0
             1909   1910   1926   1927   1930  -1939      0
             1928   1929   1940   1941   1944  -1958      0
             1942   1943   1959   1960   1963  -1980      0
             1961   1962   1981   1982   1985  -1997      0
             1983   1984   1998   1999   2002  -2014      0
             2000   2001   2015   2016   2019  -2033      0
             2017   2018   2034   2035   2038  -2055      0
             2036   2037   2056   2057   2060  -2076      0
             2058   2059   2077   2078   2081  -2086      0
             2079   2080   2087   2088   2091  -2102      0
             2089   2090   2103   2104   2107  -2119      0
             2105   2106   2120   2121   2124  -2138      0
             2122   2123   2139   2140   2143  -2149      0
             2141   2142   2150   2151   2154  -2171      0
             2152   2153   2172   2173   2176  -2178      0
             2174   2175   2179   2180   2183  -2195      0
             2181   2182   2196   2197   2200  -2207      0
             2198   2199   2208   2209   2212  -2228      0
             2210   2211   2229   2230   2233  -2247      0
             2231   2232   2248   2249   2252  -2254      0
             2250   2251   2255   2256   2259  -2265      0
             2257   2258   2266   2267   2270  -2289      0
             2268   2269   2290   2291   2294  -2306      0
             2292   2293   2307   2308   2311  -2327      0
             2309   2310   2328   2329   2332  -2343      0
             2330   2331   2344   2345   2348  -2361      0
             2346   2347   2362   2363   2366  -2385      0
             2364   2365   2386   2387   2390  -2397      0
             2388   2389   2398   2399   2402  -2416      0
             2400   2401   2417   2418   2421  -2426      0
             2419   2420   2427   2428   2431  -2436      0
             2429   2430   2437   2438   2441  -2460      0
             2439   2440   2461   2462   2465  -2474      0
             2463   2464   2475   2476   2479  -2490      0
             2477   2478   2491   2492   2495  -2509      0
             2493   2494   2510   2511   2514  -2525      0
             2512   2513   2526   2527   2530  -2540      0
             2528   2529   2541   2542   2545  -2551      0
             2543   2544   2552   2553   2556  -2566      0
             2554   2555   2567   2568   2571  -2584      0
             2569   2570   2585   2586   2589  -2601      0
             2587   2588   2602   2603   2606  -2617      0
             2604   2605   2618   2619   2622  -2639      0
             2620   2621   2640   2641   2644  -2658      0
             2642   2643   2659   2660   2663  -2665      0
             2661   2662   2666   2667   2670  -2677      0
             2668   2669   2678   2679   2682  -2697      0
             2680   2681   2698   2699   2702  -2704      0
             2700   2701   2705   2706   2709  -2723      0
             2707   2708   2724   2725   2728  -2737      0
             2726   2727   2738   2739   2742  -2759      0
             2740   2741   2760   2761   2764  -2769      0
             2762   2763   2770   2771   2774  -2788      0
             2772   2773   2789   2790   2793  -2803      0
             2791   2792   2804   2805   2808  -2817      0
             2806   2807   2818   2819   2822  -2829      0
             2820   2821   2830   2831   2834  -2851      0
             2832   2833   2852  -2868   2871  -2880   9345  -9376
                0
             2869   2870   2881   2882   2885  -2896      0
             2883   2884   2897   2898   2901  -2918      0
             2899   2900   2919   2920   2923  -2930      0
             2921   2922   2931   2932   2935  -2942      0
             2933   2934   2943   2944   2947  -2966      0
             2945   2946   2967   2968   2971  -2978      0
             2969   2970   2979   2980   2983  -2989      0
             2981   2982   2990   2991   2994  -3003      0
             2992   2993   3004   3005   3008  -3019      0
             3006   3007   3020   3021   3024  -3039      0
             3022   3023   3040   3041   3044  -3063      0
             3042   3043   3064   3065   3068  -3084      0
             3066   3067   3085   3086   3089  -3094      0
             3087   3088   3095   3096   3099  -3108      0
             3097   3098   3109   3110   3113  -3123      0
             3111   3112   3124   3125   3128  -3134      0
             3126   3127   3135   3136   3139  -3153      0
             3137   3138   3154   3155   3158  -3170      0
             3156   3157   3171   3172   3175  -3187      0
             3173   3174   3188   3189   3192  -3198      0
             3190   3191   3199   3200   3203  -3220      0
             3201   3202   3221   3222   3225  -3240      0
             3223   3224   3241   3242   3245  -3261      0
             3243   3244   3262   3263   3266  -3280      0
             3264   3265   3281   3282   3285  -3290      0
             3283   3284   3291   3292   3295  -3301      0
             3293   3294   3302   3303   3306  -3313      0
             3304   3305   3314   3315   3318  -3329      0
             3316   3317   3330   3331   3334  -3353      0
             3332   3333   3354   3355   3358  -3364      0
             3356   3357   3365   3366   3369  -3384      0
             3367   3368   3385   3386   3389  -3391      0
             3387   3388   3392   3393   3396  -3407      0
             3394   3395   3408   3409   3412  -3421      0
             3410   3411   3422   3423   3426  -3440      0
             3424   3425   3441   3442   3445  -3458      0
             3443   3444   3459   3460   3463  -3473      0
             3461   3462   3474   3475   3478  -3492      0
             3476   3477   3493   3494   3497  -3511      0
             3495   3496   3512   3513   3516  -3525      0
             3514   3515   3526   3527   3530  -3546      0
             3528   3529   3547   3548   3551  -3557      0
             3549   3550   3558   3559   3562  -3569      0
             3560   3561   3570   3571   3574  -3580      0
             3572   3573   3581   3582   3585  -3592      0
             3583   3584   3593   3594   3597  -3603      0
             3595   3596   3604   3605   3608  -3614      0
             3606   3607   3615   3616   3619  -3628      0
             3617   3618   3629   3630   3633  -3645      0
             3631   3632   3646   3647   3650  -3655      0
             3648   3649   3656   3657   3660  -3674      0
             3658   3659   3675   3676   3679  -3694      0
             3677   3678   3695   3696   3699  -3713      0
             3697   3698   3714   3715   3718  -3735      0
             3716   3717   3736   3737   3740  -3752      0
             3738   3739   3753   3754   3757  -3771      0
             3755   3756   3772   3773   3776  -3778      0
             3774   3775   3779   3780   3783  -3792      0
             3781   3782   3793   3794   3797  -3806      0
             3795   3796   3807   3808   3811  -3824      0
             3809   3810   3825   3826   3829  -3831      0
             3827   3828   3832   3833   3836  -3848      0
             3834   3835   3849   3850   3853  -3865      0
             3851   3852   3866   3867   3870  -3879      0