!*** FMO 5.5 (Gamess) INPUT generated by Facio 27.1.1.64 ***
 $CONTRL RUNTYP=ENERGY NPRINT=-5 ISPHER=-1 MAXIT=50 $END
 $SYSTEM MWORDS=58 $END
 $GDDI NGROUP=1 $END
 $SCF DIRSCF=.TRUE. NPUNCH=0 $END
!*** NumCPU : 1  MemPerNode : 512MB
 $FMOPRP
    MODPAR=13
    NAODIR=210
    NGRFMO(1)=1, 1, 0, 0, 0,   0, 0, 0, 0, 0
    IPIEDA=1
    NPRINT=9
 $END
 $FMO
      SCFTYP(1)=RHF
      MODGRD=10
      MODMUL=0
      MAXCAO=5
      MAXBND=33
      NLAYER=1
      NFRAG=34
      ICHARG(1)=  -1, -1, -1, -1, -1, -1, -1, -1, -1, -1,
                  -1, -1, -1, -1, -1, -1, -1, -1, -1, -1,
                  -1, -1, -1, -1, -1, -1, -1, -1, -1, -1,
                  -1, -1,  0, -1
      FRGNAM(1)= Frag1, Frag2, Frag3, Frag4, Frag5, 
                 Frag6, Frag7, Frag8, Frag9, Frag10, 
                 Frag11, Frag12, Frag13, Frag14, Frag15, 
                 Frag16, Frag17, Frag18, Frag19, Frag20, 
                 Frag21, Frag22, Frag23, Frag24, Frag25, 
                 Frag26, Frag27, Frag28, Frag29, Frag30, 
                 Frag31, Frag32, Frag33, Frag34
      INDAT(1)= 0
                1    -32      0
               33    -65      0
               66    -97      0
               98   -129      0
              130   -159      0
              160   -192      0
              193   -225      0
              226   -258      0
              259   -290      0
              291   -323      0
              324   -355      0
              356   -388      0
              389   -421      0
              422   -454      0
              455   -486      0
              487   -519      0
              520   -552      0
              553   -582      0
              583   -615      0
              616   -647      0
              648   -679      0
              680   -711      0
              712   -743      0
              744   -776      0
              777   -809      0
              810   -842      0
              843   -874      0
              875   -907      0
              908   -937      0
              938   -969      0
              970  -1001      0
             1002  -1031      0
             1032  -1061      0
             1062  -1106      0
 $END
 $FMOHYB
 6-31G   9   5
   1 0  -0.067723   0.300280   0.000000   0.000000   0.606750
         0.306535   0.000000   0.000000   0.309792
   0 1  -0.067730   0.300309   0.572036   0.000000  -0.202233
         0.306551   0.292061   0.000000  -0.103255
   0 1  -0.067730   0.300309  -0.286018  -0.495398  -0.202233
         0.306551  -0.146031  -0.252932  -0.103255
   0 1  -0.067730   0.300309  -0.286018   0.495398  -0.202233
         0.306551  -0.146031   0.252932  -0.103255
   0 1   1.011953  -0.016447   0.000000   0.000000   0.000000
        -0.059374   0.000000   0.000000  -0.000000
 $END
 $FMOBND
       -33        32  6-31G
       -66        65  6-31G
       -98        97  6-31G
      -130       129  6-31G
      -160       159  6-31G
      -193       192  6-31G
      -226       225  6-31G
      -259       258  6-31G
      -291       290  6-31G
      -324       323  6-31G
      -356       355  6-31G
      -389       388  6-31G
      -422       421  6-31G
      -455       454  6-31G
      -487       486  6-31G
      -520       519  6-31G
      -553       552  6-31G
      -583       582  6-31G
      -616       615  6-31G
      -648       647  6-31G
      -680       679  6-31G
      -712       711  6-31G
      -744       743  6-31G
      -777       776  6-31G
      -810       809  6-31G
      -843       842  6-31G
      -875       874  6-31G
      -908       907  6-31G
      -938       937  6-31G
      -970       969  6-31G
     -1002      1001  6-31G
     -1032      1031  6-31G
 $END
 $DATA
 FMO calculation : 7w9n_M1_c_H_R.pdb
 C1 
 O.1-1    8
      N31 6
    
 C.1-1    6
      N31 6
    
 N.1-1    7
      N31 6
    
 H.1-1    1
      N31 6
    
 P.1-1   15
      N31 6
    
 Cl.1-1  17
      N31 6
    
 $END
 $FMOXYZ
      1      O           33.084       12.583       21.467
      2      C           32.468       11.833       20.416
      3      C           31.691       12.726       19.477
      4      O           31.951       12.313       18.116
      5      C           30.174       12.673       19.654
      6      O           29.546       13.954       19.548
      7      C           29.703       11.746       18.552
      8      C           30.752       11.912       17.466
      9      N           31.060       10.691       16.706
     10      C           31.075       10.752       15.310
     11      O           30.828       11.834       14.756
     12      N           31.357        9.633       14.602
     13      C           31.616        8.490       15.239
     14      N           31.889        7.411       14.500
     15      C           31.608        8.398       16.662
     16      C           31.327        9.514       17.350
     17      H           31.789       11.098       20.848
     18      H           33.236       11.311       19.847
     19      H           33.713       13.181       21.060
     20      H           32.028       13.785       19.658
     21      H           29.901       12.208       20.643
     22      H           29.644       10.717       18.909
     23      H           28.707       12.031       18.209
     24      H           30.461       12.721       16.738
     25      H           31.894        7.477       13.493
     26      H           32.090        6.528       14.950
     27      H           31.822        7.459       17.172
     28      H           31.312        9.480       18.439
     29      P           27.973       14.097       19.842
     30      O           27.754       15.425       20.466
     31      O           27.517       12.871       20.545
     32      O           27.311       14.115       18.393
     33      C           27.566       15.184       17.483
     34      C           26.771       14.988       16.214
     35      O           27.307       13.839       15.504
     36      C           25.288       14.702       16.431
     37      O           24.517       15.435       15.473
     38      C           25.141       13.206       16.197
     39      C           26.271       12.904       15.228
     40      N           26.837       11.564       15.357
     41      C           27.125       10.896       16.521
     42      N           27.627        9.708       16.325
     43      C           27.673        9.582       14.943
     44      C           28.124        8.506       14.134
     45      O           28.590        7.418       14.492
     46      N           27.997        8.789       12.775
     47      C           27.496        9.967       12.270
     48      N           27.449       10.060       10.931
     49      N           27.072       10.977       13.013
     50      C           27.189       10.717       14.330
     51      H           28.629       15.212       17.238
     52      H           27.282       16.133       17.940
     53      H           26.860       15.928       15.601
     54      H           24.914       14.932       17.468
     55      H           25.284       12.634       17.114
     56      H           24.156       12.952       15.803
     57      H           25.942       13.051       14.161
     58      H           26.952       11.313       17.504
     59      H           28.309        8.043       12.047
     60      H           27.773        9.291       10.361
     61      H           27.094       10.898       10.496
     62      P           22.915       15.299       15.462
     63      O           22.358       16.643       15.170
     64      O           22.501       14.586       16.697
     65      O           22.614       14.354       14.214
     66      C           23.163       14.642       12.929
     67      C           22.818       13.540       11.955
     68      O           23.652       12.372       12.232
     69      C           21.375       13.045       12.031
     70      O           20.854       12.849       10.714
     71      C           21.465       11.725       12.783
     72      C           22.830       11.217       12.344
     73      N           23.476       10.300       13.282
     74      C           23.615       10.447       14.641
     75      N           24.245        9.452       15.219
     76      C           24.539        8.591       14.170
     77      C           25.198        7.350       14.122
     78      N           25.701        6.736       15.196
     79      N           25.324        6.752       12.916
     80      C           24.820        7.368       11.839
     81      N           24.180        8.533       11.758
     82      C           24.072        9.100       12.972
     83      H           24.247       14.726       13.003
     84      H           22.757       15.584       12.559
     85      H           22.996       13.941       10.918
     86      H           20.686       13.728       12.603
     87      H           21.376       11.872       13.859
     88      H           20.667       11.045       12.479
     89      H           22.784       10.721       11.334
     90      H           23.244       11.304       15.183
     91      H           26.163        5.844       15.098
     92      H           25.616        7.164       16.107
     93      H           24.918        6.896       10.864
     94      P           19.332       12.368       10.520
     95      O           18.826       12.987        9.269
     96      O           18.607       12.593       11.796
     97      O           19.452       10.797       10.283
     98      C           20.045       10.278        9.093
     99      C           19.914        8.774        9.057
    100      O           20.761        8.205       10.087
    101      C           18.506        8.249        9.333
    102      O           18.136        7.169        8.468
    103      C           18.583        7.763       10.767
    104      C           20.008        7.239       10.810
    105      N           20.599        7.119       12.155
    106      C           21.394        6.027       12.419
    107      O           21.632        5.162       11.594
    108      N           21.905        5.987       13.691
    109      C           21.704        6.909       14.700
    110      O           22.229        6.739       15.797
    111      C           20.858        8.028       14.354
    112      C           20.584        9.075       15.386
    113      C           20.351        8.081       13.112
    114      H           21.101       10.545        9.064
    115      H           19.547       10.701        8.220
    116      H           20.222        8.427        8.031
    117      H           17.726        9.060        9.280
    118      H           18.396        8.576       11.469
    119      H           17.847        6.983       10.963
    120      H           20.114        6.248       10.285
    121      H           22.494        5.196       13.914
    122      H           19.740        9.705       15.059
    123      H           21.479        9.705       15.520
    124      H           20.329        8.591       16.345
    125      H           19.712        8.924       12.848
    126      P           16.591        6.954        8.079
    127      O           16.555        6.182        6.811
    128      O           15.902        8.266        8.159
    129      O           16.028        6.022        9.241
    130      C           14.652        5.641        9.273
    131      C           14.331        4.954       10.579
    132      O           14.901        3.624       10.557
    133      C           14.885        5.648       11.820
    134      O           13.919        5.605       12.875
    135      C           16.113        4.837       12.183
    136      C           15.789        3.448       11.655
    137      N           16.958        2.696       11.171
    138      C           17.135        1.377       11.597
    139      O           16.301        0.880       12.370
    140      N           18.206        0.677       11.159
    141      C           19.082        1.250       10.327
    142      N           20.125        0.522        9.920
    143      C           18.926        2.593        9.878
    144      C           17.860        3.272       10.321
    145      H           14.442        4.959        8.449
    146      H           14.026        6.527        9.171
    147      H           13.209        4.915       10.671
    148      H           15.206        6.714       11.654
    149      H           17.006        5.247       11.712
    150      H           16.280        4.839       13.261
    151      H           15.263        2.829       12.435
    152      H           20.233       -0.430       10.239
    153      H           20.805        0.925        9.290
    154      H           19.646        3.051        9.198
    155      H           17.711        4.304        9.997
    156      P           12.878        6.817       13.051
    157      O           13.620        8.080       12.804
    158      O           12.158        6.630       14.336
    159      O           11.840        6.612       11.861
    160      C           10.831        5.605       11.932
    161      C           10.146        5.458       10.595
    162      O           11.055        4.806        9.684
    163      C            8.874        4.608       10.617
    164      O            7.915        5.239        9.761
    165      C            9.268        3.257       10.025
    166      C           10.653        3.466        9.441
    167      N           11.643        2.564       10.024
    168      C           11.796        2.251       11.353
    169      N           12.767        1.410       11.575
    170      C           13.289        1.150       10.315
    171      C           14.362        0.308        9.921
    172      O           15.086       -0.398       10.633
    173      N           14.563        0.334        8.542
    174      C           13.816        1.082        7.661
    175      N           14.152        0.977        6.367
    176      N           12.813        1.869        8.016
    177      C           12.607        1.856        9.348
    178      H           10.090        5.881       12.683
    179      H           11.282        4.651       12.209
    180      H            9.872        6.489       10.233
    181      H            8.422        4.427       11.633
    182      H            9.311        2.487       10.794
    183      H            8.544        2.934        9.278
    184      H           10.634        3.303        8.327
    185      H           11.175        2.662       12.135
    186      H           15.358       -0.270        8.111
    187      H           14.918        0.377        6.091
    188      H           13.643        1.498        5.669
    189      P            6.451        4.596        9.594
    190      O            5.518        5.698        9.251
    191      O            6.178        3.744       10.780
    192      O            6.590        3.648        8.319
    193      C            6.837        4.192        7.023
    194      C            7.105        3.082        6.034
    195      O            8.383        2.438        6.292
    196      C            6.085        1.942        6.061
    197      O            5.276        2.023        4.882
    198      C            6.931        0.664        6.035
    199      C            8.306        1.177        5.645
    200      N            9.420        0.343        6.088
    201      C           10.428       -0.171        5.310
    202      N           11.288       -0.884        5.982
    203      C           10.817       -0.841        7.290
    204      C           11.334       -1.433        8.472
    205      O           12.344       -2.136        8.601
    206      N           10.550       -1.139        9.586
    207      C            9.410       -0.370        9.554
    208      N            8.784       -0.194       10.727
    209      N            8.918        0.187        8.457
    210      C            9.666       -0.088        7.371
    211      H            7.704        4.852        7.062
    212      H            5.970        4.764        6.693
    213      H            7.069        3.560        5.015
    214      H            5.422        1.905        6.971
    215      H            6.977        0.183        7.013
    216      H            6.537       -0.065        5.328
    217      H            8.408        1.346        4.536
    218      H           10.503        0.000        4.246
    219      H           10.840       -1.534       10.557
    220      H            9.155       -0.618       11.565
    221      H            7.941        0.360       10.771
    222      P            4.090        0.962        4.657
    223      O            3.086        1.599        3.768
    224      O            3.672        0.441        5.984
    225      O            4.783       -0.224        3.849
    226      C            5.531        0.034        2.660
    227      C            6.070       -1.259        2.094
    228      O            7.135       -1.757        2.964
    229      C            5.044       -2.389        1.993
    230      O            5.202       -3.051        0.734
    231      C            5.404       -3.325        3.135
    232      C            6.902       -3.123        3.271
    233      N            7.423       -3.391        4.609
    234      C            6.902       -2.959        5.804
    235      N            7.584       -3.361        6.840
    236      C            8.622       -4.108        6.297
    237      C            9.688       -4.797        6.930
    238      O            9.933       -4.888        8.140
    239      N           10.522       -5.427        6.007
    240      C           10.341       -5.390        4.645
    241      N           11.245       -6.056        3.911
    242      N            9.351       -4.751        4.040
    243      C            8.536       -4.136        4.922
    244      H            6.365        0.698        2.889
    245      H            4.888        0.509        1.919
    246      H            6.452       -1.040        1.058
    247      H            3.969       -2.079        2.120
    248      H            4.909       -3.044        4.066
    249      H            5.130       -4.356        2.917
    250      H            7.475       -3.751        2.532
    251      H            6.015       -2.347        5.877
    252      H           11.380       -5.991        6.367
    253      H           12.002       -6.546        4.366
    254      H           11.170       -6.068        2.904
    255      P            4.028       -3.998        0.175
    256      O            3.099       -3.140       -0.603
    257      O            3.506       -4.811        1.304
    258      O            4.772       -4.973       -0.842
    259      C            5.847       -5.807       -0.408
    260      C            6.388       -6.606       -1.570
    261      O            6.933       -5.692       -2.559
    262      C            7.537       -7.549       -1.216
    263      O            7.559       -8.689       -2.081
    264      C            8.738       -6.658       -1.472
    265      C            8.305       -5.996       -2.768
    266      N            9.000       -4.740       -3.101
    267      C            9.140       -4.409       -4.430
    268      O            8.716       -5.106       -5.339
    269      N            9.798       -3.227       -4.658
    270      C           10.317       -2.366       -3.712
    271      O           10.883       -1.336       -4.068
    272      C           10.136       -2.777       -2.338
    273      C           10.667       -1.903       -1.245
    274      C            9.494       -3.931       -2.099
    275      H            5.492       -6.491        0.363
    276      H            6.645       -5.189        0.003
    277      H            5.545       -7.224       -1.990
    278      H            7.579       -7.894       -0.145
    279      H            8.896       -5.931       -0.675
    280      H            9.663       -7.226       -1.588
    281      H            8.379       -6.692       -3.651
    282      H            9.915       -2.957       -5.625
    283      H            9.856       -1.265       -0.855
    284      H           11.475       -1.265       -1.641
    285      H           11.064       -2.531       -0.429
    286      H            9.354       -4.243       -1.063
    287      P            7.337      -10.160       -1.471
    288      O            7.539      -11.133       -2.575
    289      O            6.059      -10.162       -0.715
    290      O            8.534      -10.332       -0.435
    291      C            9.893      -10.226       -0.859
    292      C           10.823      -10.443        0.312
    293      O           10.558       -9.434        1.342
    294      C           10.670      -11.794        1.008
    295      O           11.959      -12.300        1.375
    296      C            9.841      -11.492        2.242
    297      C           10.214      -10.057        2.571
    298      N            9.136       -9.291        3.191
    299      C            8.176       -8.546        2.553
    300      N            7.340       -7.969        3.372
    301      C            7.776       -8.358        4.633
    302      C            7.264       -8.043        5.919
    303      O            6.288       -7.339        6.207
    304      N            8.006       -8.644        6.935
    305      C            9.104       -9.447        6.725
    306      N            9.692       -9.941        7.826
    307      N            9.590       -9.748        5.532
    308      C            8.883       -9.173        4.538
    309      H           10.070       -9.234       -1.276
    310      H           10.098      -10.977       -1.622
    311      H           11.876      -10.369       -0.081
    312      H           10.125      -12.570        0.401
    313      H            8.772      -11.543        2.030
    314      H           10.048      -12.193        3.052
    315      H           11.113      -10.015        3.248
    316      H            8.117       -8.448        1.479
    317      H            7.716       -8.481        7.971
    318      H            9.323       -9.716        8.739
    319      H           10.503      -10.537        7.742
    320      P           12.090      -13.785        1.975
    321      O           13.376      -14.349        1.486
    322      O           10.824      -14.511        1.710
    323      O           12.219      -13.557        3.546
    324      C           13.238      -12.715        4.085
    325      C           13.289      -12.857        5.588
    326      O           12.077      -12.313        6.159
    327      C           13.375      -14.297        6.092
    328      O           14.358      -14.428        7.124
    329      C           11.985      -14.641        6.613
    330      C           11.352      -13.288        6.896
    331      N            9.935      -13.204        6.500
    332      C            9.017      -12.826        7.453
    333      O            9.322      -12.560        8.604
    334      N            7.720      -12.770        7.008
    335      C            7.263      -13.050        5.735
    336      O            6.064      -12.958        5.481
    337      C            8.281      -13.440        4.786
    338      C            7.876      -13.760        3.382
    339      C            9.554      -13.498        5.206
    340      H           13.027      -11.676        3.832
    341      H           14.205      -12.996        3.667
    342      H           14.202      -12.305        5.949
    343      H           13.621      -15.009        5.255
    344      H           11.459      -15.251        5.879
    345      H           12.074      -15.230        7.525
    346      H           11.431      -13.030        7.989
    347      H            7.023      -12.498        7.686
    348      H            8.610      -13.331        2.678
    349      H            6.880      -13.331        3.177
    350      H            7.837      -14.855        3.248
    351      H           10.323      -13.793        4.493
    352      P           15.822      -14.989        6.762
    353      O           15.642      -16.279        6.052
    354      O           16.657      -14.937        7.990
    355      O           16.395      -13.926        5.722
    356      C           17.068      -12.749        6.170
    357      C           17.347      -11.834        5.001
    358      O           16.175      -11.015        4.768
    359      C           18.513      -10.868        5.208
    360      O           19.340      -10.714        4.051
    361      C           17.831       -9.537        5.535
    362      C           16.542       -9.643        4.737
    363      N           15.429       -8.869        5.278
    364      C           14.552       -8.078        4.577
    365      N           13.659       -7.503        5.332
    366      C           13.962       -7.942        6.615
    367      C           13.338       -7.652        7.856
    368      O           12.360       -6.925        8.074
    369      N           13.963       -8.305        8.918
    370      C           15.055       -9.130        8.786
    371      N           15.521       -9.672        9.922
    372      N           15.646       -9.409        7.635
    373      C           15.052       -8.784        6.599
    374      H           18.011      -13.023        6.643
    375      H           16.445      -12.225        6.894
    376      H           17.581      -12.479        4.108
    377      H           19.145      -11.164        6.092
    378      H           17.682       -9.437        6.610
    379      H           18.453       -8.702        5.210
    380      H           16.696       -9.346        3.662
    381      H           14.598       -7.948        3.506
    382      H           13.578       -8.167        9.926
    383      H           15.073       -9.464       10.802
    384      H           16.320      -10.290        9.896
    385      P           20.702       -9.868        4.152
    386      O           21.620      -10.375        3.099
    387      O           21.144       -9.858        5.570
    388      O           20.265       -8.387        3.755
    389      C           19.856       -8.073        2.423
    390      C           19.319       -6.663        2.363
    391      O           18.066       -6.592        3.060
    392      C           20.209       -5.612        3.025
    393      O           21.163       -5.132        2.072
    394      C           19.201       -4.563        3.534
    395      C           17.846       -5.246        3.460
    396      N           17.122       -5.283        4.726
    397      C           17.371       -6.104        5.798
    398      N           16.555       -5.909        6.797
    399      C           15.712       -4.896        6.356
    400      C           14.622       -4.261        7.005
    401      O           14.171       -4.475        8.137
    402      N           14.038       -3.282        6.203
    403      C           14.461       -2.963        4.932
    404      N           13.774       -1.995        4.309
    405      N           15.474       -3.550        4.316
    406      C           16.050       -4.499        5.080
    407      H           19.076       -8.766        2.107
    408      H           20.706       -8.162        1.748
    409      H           19.209       -6.393        1.275
    410      H           20.791       -5.996        3.909
    411      H           19.359       -4.348        4.591
    412      H           19.228       -3.614        2.998
    413      H           17.192       -4.754        2.687
    414      H           18.164       -6.836        5.814
    415      H           13.190       -2.719        6.586
    416      H           13.000       -1.543        4.775
    417      H           14.034       -1.714        3.373
    418      P           20.721       -4.036        0.983
    419      O           19.257       -4.173        0.786
    420      O           21.632       -4.146       -0.184
    421      O           20.996       -2.642        1.705
    422      C           22.300       -2.063        1.708
    423      C           22.640       -1.545        3.087
    424      O           22.482       -0.106        3.140
    425      C           21.726       -2.049        4.201
    426      O           22.183       -3.314        4.692
    427      C           21.875       -0.973        5.258
    428      C           21.903        0.272        4.384
    429      N           20.586        0.839        4.111
    430      C           19.707        0.458        3.126
    431      N           18.603        1.152        3.125
    432      C           18.760        2.049        4.173
    433      C           17.888        3.059        4.658
    434      O           16.767        3.370        4.239
    435      N           18.436        3.742        5.742
    436      C           19.671        3.476        6.284
    437      N           20.032        4.238        7.328
    438      N           20.494        2.538        5.842
    439      C           19.978        1.868        4.793
    440      H           22.337       -1.236        0.998
    441      H           23.036       -2.814        1.417
    442      H           23.691       -1.874        3.321
    443      H           20.635       -2.128        3.933
    444      H           21.038       -0.961        5.957
    445      H           22.789       -1.089        5.842
    446      H           22.549        1.073        4.842
    447      H           19.911       -0.338        2.424
    448      H           17.866        4.544        6.207
    449      H           19.409        4.956        7.668