!*** FMO 5.5 (Gamess) INPUT generated by Facio 27.1.1.64 ***
 $CONTRL RUNTYP=ENERGY NPRINT=-5 ISPHER=1 MAXIT=50 $END
 $SYSTEM MWORDS=58 $END
 $GDDI NGROUP=1 $END
 $SCF DIRSCF=.TRUE. NPUNCH=0 $END
!*** NumCPU : 1  MemPerNode : 512MB
 $FMOPRP
    MODPAR=13
    NAODIR=200
    NGRFMO(1)=1, 1, 0, 0, 0,   0, 0, 0, 0, 0
    NPRINT=9
 $END
 $FMO
      SCFTYP(1)=RHF
      MODGRD=10
      MODMUL=0
      MAXCAO=5
      MAXBND=25
      NLAYER=1
      NFRAG=26
      ICHARG(1)=  -1, -1, -1, -1, -1, -2, -1, -1, -1, -1,
                  -1,  0, -1, -1, -1, -1, -1, -1, -1, -1,
                  -1, -1, -1, -1,  0,  0
      FRGNAM(1)= Frag1, Frag2, Frag3, Frag4, Frag5, 
                 Frag6, Frag7, Frag8, Frag9, Frag10, 
                 Frag11, Frag12, Frag13, Frag14, Frag15, 
                 Frag16, Frag17, Frag18, Frag19, Frag20, 
                 Frag21, Frag22, Frag23, Frag24, Frag25, 
                 Frag26
      INDAT(1)= 0
                1    -36      0
               37    -69      0
               70   -100      0
              101   -133      0
              134   -167      0
              168   -228      0
              229   -262      0
              263   -293      0
              294   -323      0
              324   -357      0
              358   -387      0
              388   -415      0
              416   -451      0
              452   -484      0
              485   -515      0
              516   -548      0
              549   -582      0
              583   -613      0
              614   -643      0
              644   -677      0
              678   -708      0
              709   -738      0
              739   -772      0
              773   -802      0
              803   -830      0
              831   -873      0
 $END
 $FMOHYB
 6-31G*      15   5
   1 0  -0.065034   0.288264   0.000000   0.000000   0.604412
         0.290129   0.000000   0.000000   0.319045  -0.017106
        -0.017106   0.057934   0.000000   0.000000   0.000000
   0 1  -0.065040   0.288293   0.569832   0.000000  -0.201456
         0.290147   0.300783   0.000000  -0.106342   0.049598
        -0.017106  -0.008771   0.000000  -0.027223   0.000000
   0 1  -0.065039   0.288293  -0.284916  -0.493490  -0.201455
         0.290145  -0.150392  -0.260486  -0.106340  -0.000427
         0.032923  -0.008771   0.033353   0.013612   0.023576
   0 1  -0.065039   0.288293  -0.284916   0.493490  -0.201455
         0.290145  -0.150392   0.260486  -0.106340  -0.000427
         0.032923  -0.008771  -0.033353   0.013612  -0.023576
   0 1   1.010938  -0.011975   0.000000   0.000000   0.000000
        -0.054085   0.000000   0.000000  -0.000000  -0.003174
        -0.003174  -0.003174   0.000000   0.000000   0.000000
 $END
 $FMOBND
       -37        36  6-31G*
       -70        69  6-31G*
      -101       100  6-31G*
      -134       133  6-31G*
      -168       167  6-31G*
      -199       198  6-31G*
      -229       228  6-31G*
      -263       262  6-31G*
      -294       293  6-31G*
      -324       323  6-31G*
      -358       357  6-31G*
      -388       387  6-31G*
      -452       451  6-31G*
      -485       484  6-31G*
      -516       515  6-31G*
      -549       548  6-31G*
      -583       582  6-31G*
      -614       613  6-31G*
      -644       643  6-31G*
      -678       677  6-31G*
      -709       708  6-31G*
      -739       738  6-31G*
      -773       772  6-31G*
      -803       802  6-31G*
 $END
 $DATA
 FMO calculation : 9cpd_M1_R.pdb
 C1 
 O.1-1    8
      N31 6
      d 1
      1 0.800 1.0
    
 C.1-1    6
      N31 6
      d 1
      1 0.800 1.0
    
 N.1-1    7
      N31 6
      d 1
      1 0.800 1.0
    
 H.1-1    1
      N31 6
    
 P.1-1   15
      N31 6
      d 1
      1 0.550 1.0
    
 $END
 $FMOXYZ
      1      O           11.248      -11.065        1.671
      2      C           10.750       -9.850        2.225
      3      C           11.616       -8.648        1.791
      4      O           11.287       -8.240        0.451
      5      C           11.356       -7.425        2.670
      6      O           12.034       -7.455        3.919
      7      C           11.814       -6.302        1.728
      8      O           13.245       -6.178        1.664
      9      C           11.307       -6.808        0.377
     10      N            9.949       -6.308        0.089
     11      C            8.747       -6.933        0.316
     12      N            7.729       -6.338       -0.226
     13      C            8.291       -5.179       -0.798
     14      C            7.693       -4.096       -1.526
     15      O            6.525       -3.950       -1.892
     16      N            8.584       -3.093       -1.879
     17      C            9.917       -3.170       -1.632
     18      N           10.653       -2.179       -2.062
     19      N           10.518       -4.172       -0.993
     20      C            9.646       -5.149       -0.600
     21      H           10.728       -9.905        3.317
     22      H            9.739       -9.638        1.904
     23      H           12.663       -8.893        1.827
     24      H           10.280       -7.348        2.833
     25      H           11.345       -5.355        1.971
     26     HO           13.488       -5.280        1.356
     27      H           11.985       -6.473       -0.413
     28      H            8.671       -7.857        0.878
     29      H            8.224       -2.325       -2.423
     30      H           11.639       -2.211       -1.899
     31      H           10.192       -1.398       -2.508
     32     HO           10.704      -11.814        1.982
     33      P           11.571       -6.571        5.155
     34      O           12.518       -6.821        6.276
     35      O           10.120       -6.825        5.374
     36      O           11.736       -5.041        4.678
     37      C           13.010       -4.437        4.582
     38      C           12.930       -3.060        3.900
     39      O           12.366       -3.127        2.578
     40      C           12.112       -2.018        4.680
     41      O           12.828       -1.434        5.759
     42      C           11.776       -1.045        3.548
     43      O           12.884       -0.194        3.236
     44      C           11.563       -1.983        2.359
     45      N           10.124       -2.313        2.210
     46      C            9.406       -3.355        2.758
     47      N            8.149       -3.396        2.402
     48      C            8.032       -2.269        1.563
     49      C            6.974       -1.674        0.826
     50      N            5.741       -2.138        0.739
     51      N            7.178       -0.559        0.124
     52      C            8.387       -0.001        0.144
     53      N            9.463       -0.449        0.774
     54      C            9.220       -1.594        1.472
     55      H           13.676       -5.087        4.008
     56      H           13.428       -4.327        5.585
     57      H           13.958       -2.674        3.810
     58      H           11.199       -2.529        5.062
     59      H           10.870       -0.460        3.743
     60     HO           13.216        0.205        4.058
     61      H           11.871       -1.467        1.449
     62      H            9.850       -4.097        3.416
     63      H            5.073       -1.676        0.153
     64      H            5.485       -2.987        1.235
     65      H            8.524        0.921       -0.409
     66      P           12.037       -0.776        6.996
     67      O           13.052       -0.251        7.943
     68      O           11.056       -1.779        7.472
     69      O           11.221        0.456        6.391
     70      C           11.847        1.669        6.029
     71      C           10.879        2.617        5.315
     72      O           10.350        2.054        4.117
     73      C            9.685        3.039        6.152
     74      O           10.008        3.994        7.153
     75      C            8.760        3.567        5.045
     76      O            9.190        4.863        4.589
     77      C            9.018        2.556        3.924
     78      N            7.996        1.460        3.921
     79      C            6.787        1.666        3.256
     80      O            6.546        2.718        2.660
     81      N            5.831        0.725        3.258
     82      C            6.039       -0.413        3.901
     83      N            5.096       -1.317        3.830
     84      C            7.231       -0.678        4.614
     85      C            8.190        0.282        4.602
     86      H           12.704        1.470        5.359
     87      H           12.244        2.155        6.930
     88      H           11.420        3.540        5.054
     89      H            9.248        2.148        6.613
     90      H            7.714        3.593        5.348
     91     HO            9.140        5.480        5.338
     92      H            8.977        3.083        2.956
     93      H            4.271       -1.110        3.263
     94      H            5.212       -2.197        4.329
     95      H            7.392       -1.588        5.164
     96      H            9.112        0.146        5.144
     97      P            9.122        4.114        8.473
     98      O            9.829        5.028        9.406
     99      O            8.794        2.749        8.942
    100      O            7.739        4.820        8.007
    101      C            7.698        6.194        7.676
    102      C            6.338        6.526        7.064
    103      O            6.101        5.730        5.901
    104      C            5.143        6.298        7.991
    105      O            4.987        7.297        8.967
    106      C            4.040        6.326        6.919
    107      O            3.749        7.629        6.410
    108      C            4.697        5.515        5.803
    109      N            4.373        4.065        5.958
    110      C            5.159        3.052        6.433
    111      N            4.665        1.854        6.296
    112      C            3.394        2.108        5.739
    113      C            2.293        1.312        5.351
    114      N            2.248       -0.013        5.458
    115      N            1.193        1.845        4.845
    116      C            1.157        3.164        4.736
    117      N            2.098        4.060        5.043
    118      C            3.201        3.452        5.561
    119      H            8.470        6.439        6.953
    120      H            7.867        6.803        8.571
    121      H            6.364        7.574        6.769
    122      H            5.209        5.309        8.437
    123      H            3.139        5.821        7.277
    124     HO            3.461        8.229        7.122
    125      H            4.323        5.841        4.844
    126      H            6.145        3.257        6.836
    127      H            1.451       -0.523        5.080
    128      H            3.038       -0.493        5.837
    129      H            0.248        3.570        4.334
    130      P            4.145        7.028       10.323
    131      O            4.188        8.263       11.153
    132      O            4.625        5.754       10.923
    133      O            2.647        6.801        9.825
    134      C            1.852        7.906        9.429
    135      C            0.484        7.458        8.901
    136      O            0.603        6.572        7.793
    137      C           -0.454        6.771        9.905
    138      O           -1.123        7.694       10.762
    139      C           -1.418        6.074        8.932
    140      O           -2.333        7.008        8.360
    141      C           -0.454        5.636        7.834
    142      N            0.051        4.258        8.060
    143      C            1.310        3.825        8.401
    144      N            1.458        2.520        8.371
    145      C            0.185        2.052        8.031
    146      C           -0.350        0.725        7.820
    147      O            0.252       -0.353        7.860
    148      N           -1.721        0.708        7.585
    149      C           -2.477        1.829        7.471
    150      N           -3.760        1.688        7.254
    151      N           -2.009        3.062        7.607
    152      C           -0.683        3.110        7.885
    153      H            2.356        8.456        8.637
    154      H            1.713        8.590       10.274
    155      H           -0.041        8.348        8.545
    156      H            0.116        6.032       10.479
    157      H           -1.927        5.238        9.404
    158     HO           -2.637        7.624        9.049
    159      H           -0.998        5.633        6.883
    160      H            2.121        4.520        8.631
    161      H           -2.159       -0.188        7.466
    162      H           -4.337        2.511        7.216
    163      H           -4.171        0.772        7.307
    164      P           -1.539        7.299       12.262
    165      O           -2.141        8.512       12.872
    166      O           -0.394        6.639       12.954
    167      O           -2.673        6.181       12.074
    168      C           -3.959        6.490       11.514
    169      C           -4.859        5.247       11.345
    170      O           -4.179        4.269       10.571
    171      C           -5.252        4.630       12.710
    172      O           -6.631        4.253       12.763
    173      C           -4.327        3.422       12.756
    174      O           -4.864        2.290       13.426
    175      C           -4.108        3.059       11.293
    176      N           -2.850        2.297       11.122
    177      C           -2.909        0.903       10.948
    178      O           -3.973        0.295       10.801
    179      N           -1.770        0.160       10.969
    180      C           -0.633        0.788       11.157
    181      N            0.431        0.013       11.132
    182      C           -0.511        2.198       11.343
    183      C           -1.651        2.918       11.327
    184      H           -3.841        6.962       10.540
    185      H           -4.483        7.192       12.156
    186      H           -5.745        5.564       10.800
    187      H           -5.030        5.306       13.525
    188      H           -3.385        3.740       13.214
    189     HO           -5.720        2.566       13.815
    190      H           -4.954        2.427       11.022
    191      H            0.289       -0.975       10.950
    192      H            1.341        0.425       11.184
    193      H            0.438        2.683       11.507
    194      H           -1.630        3.995       11.483
    195      P           -7.726        5.331       13.221
    196      O           -9.057        4.688       13.207
    197      O           -7.541        6.559       12.416
    198      O           -7.328        5.708       14.745
    199      C           -7.927        5.133       15.911
    200      C           -7.813        3.602       16.030
    201      O           -6.620        3.100       15.459
    202      C           -7.794        3.132       17.504
    203      O           -9.078        2.869       18.033
    204      C           -6.853        1.916       17.452
    205      O           -7.505        0.735       16.977
    206      C           -5.849        2.350       16.390
    207      N           -4.667        3.125       16.885
    208      C           -3.749        2.474       17.737
    209      O           -3.874        1.323       18.131
    210      N           -2.645        3.207       18.136
    211      C           -2.308        4.469       17.740
    212      O           -1.284        5.015       18.130
    213      C           -3.247        5.052       16.809
    214      C           -4.368        4.381       16.417
    215      H           -8.977        5.423       15.954
    216      H           -7.466        5.602       16.765
    217      H           -8.667        3.131       15.538
    218      H           -7.298        3.894       18.102
    219      H           -6.390        1.746       18.423
    220     HO           -8.261        0.530       17.567
    221      H           -5.458        1.446       15.897
    222      H           -1.999        2.726       18.724
    223      H           -3.051        6.045       16.425
    224      H           -5.031        4.817       15.694
    225      P           -9.279        2.398       19.556
    226      O          -10.619        2.849       19.991
    227      O           -8.108        2.807       20.368
    228      O           -9.264        0.791       19.462
    229      C          -10.387        0.078       18.980
    230      C          -10.162       -1.438       18.854
    231      O           -9.130       -1.744       17.925
    232      C           -9.795       -2.150       20.167
    233      O          -10.891       -2.473       21.005
    234      C           -9.119       -3.421       19.620
    235      O          -10.079       -4.377       19.156
    236      C           -8.392       -2.872       18.387
    237      N           -7.003       -2.501       18.708
    238      C           -6.509       -1.316       19.191
    239      N           -5.199       -1.267       19.194
    240      C           -4.791       -2.510       18.702
    241      C           -3.491       -3.086       18.457
    242      O           -2.377       -2.560       18.556
    243      N           -3.532       -4.415       18.066
    244      C           -4.688       -5.094       17.905
    245      N           -4.605       -6.341       17.546
    246      N           -5.916       -4.592       18.038
    247      C           -5.903       -3.293       18.475
    248      H          -10.675        0.454       18.006
    249      H          -11.216        0.241       19.682
    250      H          -11.077       -1.884       18.493
    251      H           -9.062       -1.566       20.721
    252      H           -8.423       -3.861       20.336
    253     HO          -10.852       -4.379       19.771
    254      H           -8.384       -3.660       17.614
    255      H           -7.146       -0.508       19.531
    256      H           -2.649       -4.877       17.923
    257      H           -5.468       -6.867       17.437
    258      H           -3.702       -6.806       17.503
    259      P          -10.683       -2.765       22.553
    260      O          -12.025       -3.109       23.120
    261      O           -9.918       -1.651       23.169
    262      O           -9.752       -4.076       22.634
    263      C          -10.258       -5.381       22.422
    264      C           -9.148       -6.435       22.393
    265      O           -8.222       -6.172       21.339
    266      C           -8.322       -6.555       23.674
    267      O           -8.971       -7.284       24.713
    268      C           -7.094       -7.286       23.111
    269      O           -7.320       -8.661       22.837
    270      C           -6.923       -6.604       21.747
    271      N           -5.940       -5.493       21.818
    272      C           -4.590       -5.753       21.550
    273      O           -4.182       -6.889       21.331
    274      N           -3.673       -4.756       21.545
    275      C           -4.071       -3.539       21.838
    276      N           -3.152       -2.630       21.787
    277      C           -5.405       -3.209       22.197
    278      C           -6.311       -4.220       22.186
    279      H          -10.785       -5.414       21.474
    280      H          -10.958       -5.627       23.237
    281      H           -9.623       -7.401       22.207
    282      H           -8.019       -5.551       24.010
    283      H           -6.219       -7.143       23.737
    284     HO           -7.684       -9.101       23.640
    285      H           -6.537       -7.363       21.036
    286      H           -2.229       -2.956       21.487
    287      H           -3.335       -1.655       21.952
    288      H           -5.695       -2.205       22.481
    289      H           -7.342       -4.004       22.456
    290      P           -8.550       -7.093       26.254
    291      O           -9.427       -7.993       27.041
    292      O           -8.532       -5.632       26.556
    293      O           -7.027       -7.619       26.339
    294      C           -6.743       -9.021       26.305
    295      C           -5.238       -9.269       26.239
    296      O           -4.634       -8.714       25.069
    297      C           -4.449       -8.690       27.426
    298      O           -4.567       -9.423       28.633
    299      C           -3.045       -8.744       26.809
    300      O           -2.511      -10.068       26.802
    301      C           -3.284       -8.339       25.356
    302      N           -3.101       -6.869       25.155
    303      C           -1.807       -6.435       24.855
    304      O           -0.866       -7.201       24.706
    305      N           -1.618       -5.082       24.729
    306      C           -2.561       -4.107       24.925
    307      O           -2.264       -2.932       24.785
    308      C           -3.859       -4.625       25.281
    309      C           -4.104       -5.961       25.381
    310      H           -7.194       -9.481       25.435
    311      H           -7.137       -9.517       27.173
    312      H           -5.094      -10.348       26.223
    313      H           -4.753       -7.655       27.578
    314      H           -2.383       -8.039       27.311
    315     HO           -2.764      -10.486       27.648
    316      H           -2.598       -8.886       24.721
    317      H           -0.672       -4.753       24.536
    318      H           -4.661       -3.913       25.511
    319      H           -5.091       -6.302       25.661
    320      P           -4.257       -8.672       30.016
    321      O           -4.477       -9.645       31.110
    322      O           -5.033       -7.415       30.034
    323      O           -2.692       -8.303       29.977
    324      C           -1.704       -9.291       30.246
    325      C           -0.275       -8.742       30.134
    326      O           -0.044       -8.183       28.849
    327      C            0.067       -7.636       31.141
    328      O            0.348       -8.118       32.456
    329      C            1.300       -7.032       30.438
    330      O            2.475       -7.839       30.560
    331      C            0.845       -7.082       28.973
    332      N            0.209       -5.789       28.578
    333      C           -1.127       -5.494       28.390
    334      N           -1.352       -4.265       27.965
    335      C           -0.065       -3.720       27.916
    336      C            0.396       -2.398       27.562
    337      O           -0.243       -1.428       27.154
    338      N            1.753       -2.232       27.706
    339      C            2.599       -3.226       28.080
    340      N            3.865       -2.922       28.204
    341      N            2.237       -4.462       28.385
    342      C            0.879       -4.648       28.312
    343      H           -1.843      -10.121       29.549
    344      H           -1.874       -9.659       31.262
    345      H            0.435       -9.564       30.268
    346      H           -0.745       -6.910       31.153
    347      H            1.485       -6.016       30.759
    348     HO            3.236       -7.427       30.109
    349      H            1.723       -7.227       28.341
    350      H           -1.930       -6.215       28.553
    351      H            2.130       -1.341       27.434
    352      H            4.468       -3.645       28.527
    353      H            4.189       -1.961       28.073
    354      P            0.270       -7.142       33.734
    355      O            0.587       -7.957       34.936
    356      O           -1.031       -6.442       33.677
    357      O            1.415       -6.048       33.521
    358      C            2.781       -6.380       33.686
    359      C            3.680       -5.173       33.392
    360      O            3.515       -4.689       32.051
    361      C            3.421       -3.977       34.317
    362      O            3.997       -4.101       35.596
    363      C            4.101       -2.876       33.483
    364      O            5.528       -2.919       33.579
    365      C            3.710       -3.274       32.053
    366      N            2.503       -2.526       31.588
    367      C            2.658       -1.216       31.103
    368      O            3.738       -0.621       31.093
    369      N            1.537       -0.598       30.605
    370      C            0.268       -1.127       30.581
    371      O           -0.673       -0.455       30.176
    372      C            0.173       -2.472       31.096
    373      C            1.255       -3.130       31.581
    374      H            3.049       -7.197       33.035
    375      H            2.951       -6.687       34.706
    376      H            4.712       -5.517       33.510
    377      H            2.358       -3.808       34.393
    378      H            3.696       -1.908       33.745
    379     HO            5.756       -3.102       34.515
    380      H            4.544       -3.003       31.381
    381      H            1.636        0.354       30.267
    382      H           -0.790       -2.959       31.088
    383      H            1.140       -4.155       31.937
    384      P            3.452       -3.233       36.822
    385      O            4.263       -3.610       38.008
    386      O            1.977       -3.396       36.867
    387      O            3.783       -1.693       36.478
    388      C            5.083       -1.153       36.647
    389      C            5.127        0.290       36.179
    390      O            4.820        0.438       34.796
    391      C            4.199        1.255       36.933
    392      O            4.672        1.638       38.232
    393      C            4.168        2.434       35.950
    394      O            5.286        3.309       36.044
    395      C            4.195        1.711       34.592
    396      N            2.817        1.576       34.040
    397      C            2.315        2.645       33.263
    398      O            3.003        3.611       32.954
    399      N            1.035        2.624       32.841
    400      C            0.286        1.566       33.094
    401      N           -0.922        1.577       32.627
    402      C            0.725        0.459       33.886
    403      C            2.006        0.502       34.345
    404      H            5.826       -1.734       36.095
    405      H            5.365       -1.183       37.698
    406      H            6.151        0.653       36.336
    407      H            3.188        0.818       37.028
    408     HO            4.008        2.269       38.583
    409      H            3.263        3.008       36.051
    410     HO            5.283        3.709       36.934
    411      H            4.801        2.312       33.911
    412      H           -1.166        2.347       32.010
    413      H           -1.516        0.781       32.781
    414      H            0.098       -0.395       34.131
    415      H            2.396       -0.308       34.960
    416      O           -3.616       12.266       27.151
    417      C           -2.922       11.154       26.587
    418      C           -1.605       10.858       27.306
    419      O           -1.799       10.298       28.602
    420      C           -0.740        9.821       26.566
    421      O           -0.124       10.331       25.392
    422      C            0.243        9.453       27.704
    423      O            1.236       10.461       27.959
    424      C           -0.711        9.411       28.897
    425      N           -1.214        8.037       29.138
    426      C           -2.392        7.465       28.736
    427      N           -2.592        6.247       29.170
    428      C           -1.411        5.971       29.879
    429      C           -1.008        4.802       30.615
    430      O           -1.618        3.746       30.800
    431      N            0.246        4.930       31.185
    432      C            1.020        6.044       31.096
    433      N            2.178        6.021       31.677
    434      N            0.672        7.167       30.466
    435      C           -0.563        7.066       29.865
    436      H           -2.700       11.357       25.535
    437      H           -3.552       10.273       26.601
    438      H           -1.011       11.766       27.364
    439      H           -1.355        8.961       26.343
    440      H            0.719        8.484       27.533
    441     HO            2.018       10.053       28.361
    442      H           -0.194        9.744       29.802
    443      H           -3.081        7.979       28.087
    444      H            0.619        4.128       31.660
    445      H            2.744        6.848       31.640
    446      H            2.470        5.194       32.162
    447     HO           -3.083       13.083       26.994
    448      P            0.471        9.369       24.266
    449      O            1.028       10.204       23.174
    450      O           -0.560        8.354       23.942
    451      O            1.690        8.565       24.960
    452      C            2.923        9.185       25.261