 $contrl runtyp=energy nprint=-5 maxit=200 $end
 $system mwords=218 memddi=0 $end
 $gddi ngroup=1 $end
 $scf dirscf=.t. npunch=0 $end
 $fmoprp
   ngrfmo(1)=1,1,0,0,0,  0,0,0,0,0
   ipieda=1
   naodir=220
   nprint=9
   maxit=100
 $end
 $fmo
      nlayer=1
      mplevl(1)=2
      nfrag=232
      icharg(1)= 1, 0, 0, 0, 0,-1, 0, 1,-1, 0,
                -1, 0, 0, 0, 0, 0, 0, 0, 0,-1,
                -1, 0,-1, 0, 0, 0, 0, 0, 0, 0,
                 0, 0,-1, 0, 0, 0, 0, 0, 0, 0,
                 0, 0, 0, 0, 0, 1, 1, 0, 1, 0,
                 1, 0, 0,-1, 1, 0, 0,-1, 0,-1,
                -1, 0, 0,-1, 0, 0, 0,-1, 0,-1,
                 0, 0, 0, 1, 0, 0, 1, 0, 0, 1,
                -1, 0, 0,-1, 0,-1, 0, 0, 0, 0,
                 1, 0, 1, 0, 0, 0, 0, 0, 1, 0,
                 0, 0, 0, 0, 0, 0, 0, 0,-1, 1,
                -1, 0, 0,-1, 0, 0, 0, 0, 0, 0,
                 1, 0, 0, 0, 0, 0, 0, 0, 0, 1,
                 0, 0,-1, 1, 0, 1, 0, 0, 0, 1,
                 0, 1, 0, 0,-1, 0, 0, 0, 0,-1,
                 1, 0, 0, 0, 1, 0, 0, 0, 0, 0,
                 0, 0, 0, 0, 0, 0, 0, 0, 0, 0,
                -1, 0, 1, 0,-1,-1, 0, 0, 0, 0,
                -1, 0, 0, 0, 0, 0, 0, 0, 1, 0,
                 1,-1, 0, 0, 0, 0, 0, 0, 0, 0,
                 0, 0, 0,-1, 0, 0, 1, 1, 0, 1,
                 0, 0, 0, 0, 0, 1, 0, 0, 0, 0,
                 0, 1, 0, 0,-1, 1, 0, 0, 1, 0,
                 0, 0
      frgnam(1)= ILE001, VAL002, GLY003, GLY004, GLN005,
                 GLU006, CYS007, LYS008, ASP009, GLY010,
                 GLU011, PRO013, TRP014, GLN015, ALA016,
                 LEU017, LEU018, ILE019, ASN020, GLU021,
                 GLU022, ASN023, GLU024, GLY025, PHE026,
                 CYS027, GLY028, GLY029, THR030, ILE031,
                 LEU032, SER033, GLU034, PHE035, TYR036,
                 ILE037, LEU038, THR039, ALA040, ALA041,
                 HIS042, LEU044, TYR045, GLN046, ALA047,
                 LYS048, ARG049, PHE050, LYS051, VAL052,
                 ARG053, VAL054, GLY055, ASP056, ARG057,
                 ASN058, THR059, GLU060, GLN061, GLU062,
                 GLU063, GLY064, GLY065, GLU066, ALA067,
                 VAL068, HIS069, GLU070, VAL071, GLU072,
                 VAL073, VAL074, ILE075, LYS076, HIS077,
                 ASN078, ARG079, PHE080, THR081, LYS082,
                 GLU083, THR084, TYR085, ASP086, PHE087,
                 ASP088, ILE089, ALA090, VAL091, LEU092,
                 ARG093, LEU094, LYS095, THR096, PRO097,
                 ILE098, THR099, PHE100, ARG101, MET102,
                 ASN103, VAL104, ALA105, PRO106, ALA107,
                 CYS108, LEU109, PRO110, GLU111, ARG112,
                 ASP113, TRP114, ALA115, GLU116, SER117,
                 THR118, LEU119, MET120, THR121, GLN122,
                 LYS123, THR124, GLY125, ILE126, VAL127,
                 SER128, GLY129, PHE130, GLY131, ARG132,
                 THR133, HIS134, GLU135, LYS136, GLY137,
                 ARG138, GLN139, SER140, THR141, ARG142,
                 LEU143, LYS144, MET145, LEU146, GLU147,
                 VAL148, PRO149, TYR150, VAL151, ASP152,
                 ARG153, ASN154, SER155, CYS156, LYS157,
                 LEU158, SER159, SER160, SER161, PHE162,
                 ILE163, ILE164, THR165, GLN166, ASN167,
                 MET168, PHE169, ALA171, GLY172, TYR173,
                 ASP174, THR175, LYS176, GLN177, GLU178,
                 ASP179, ALA180, CYS181, GLN182, GLY183,
                 ASP184, SER185, GLY186, GLY187, PRO188,
                 HIS189, VAL190, THR191, ARG192, PHE193,
                 LYS194, ASP195, THR196, TYR197, PHE198,
                 VAL199, THR200, GLY201, ILE202, VAL203,
                 SER204, TRP205, GLY206, GLU207, GLY208,
                 ALA210, ARG211, LYS212, GLY213, LYS214,
                 TYR215, GLY216, ILE217, TYR218, THR219,
                 LYS220, VAL221, THR222, ALA223, PHE224,
                 LEU225, LYS226, TRP227, ILE228, ASP229,
                 ARG230, SER231, MET232, LYS233, THR234,
                 ARG235, UNK001
      indat(1)= 0
                1     -6      9    -21      0
                7      8     22    -25     28    -37      0
               26     27     38    -42      0
               43    -49      0
               50    -55     58    -68      0
               56     57     69    -72     75    -83      0
               73     74     84    -87     90    -93
              139    140    150   -153    156   -159      0
               88     89     94    -97    100   -115      0
               98     99    116   -119    122   -127      0
              120    121    128   -132      0
              133   -138    141   -149      0
              154    155    160   -162    165   -173      0
              163    164    174   -177    180   -197      0
              178    179    198   -201    204   -214      0
              202    203    215   -218    221   -224      0
              219    220    225   -228    231   -243      0
              229    230    244   -247    250   -262      0
              248    249    263   -266    269   -281      0
              267    268    282   -285    288   -295      0
              286    287    296   -299    302   -310      0
              300    301    311   -314    317   -325      0
              315    316    326   -329    332   -339      0
              330    331    340   -343    346   -354      0
              344    345    355   -359      0
              360   -365    368   -381      0
              366    367    382   -385    388   -391
              601    602    614   -617    620   -623      0
              386    387    392   -396      0
              397   -403      0
              404   -409    412   -419      0
              410    411    420   -423    426   -438      0
              424    425    439   -442    445   -457      0
              443    444    458   -461    464   -468      0
              462    463    469   -472    475   -483      0
              473    474    484   -487    490   -503      0
              488    489    504   -507    510   -524      0
              508    509    525   -528    531   -543      0
              529    530    544   -547    550   -562      0
              548    549    563   -566    569   -576      0
              567    568    577   -580    583   -586      0
              581    582    587   -590    593   -596      0
              591    592    597   -600    603   -613      0
              618    619    624   -627    630   -642      0
              628    629    643   -646    649   -663      0
              647    648    664   -667    670   -680      0
              668    669    681   -684    687   -690      0
              685    686    691   -694    697   -712      0
              695    696    713   -716    719   -736      0
              717    718    737   -740    743   -756      0
              741    742    757   -760    763   -778      0
              761    762    779   -782    785   -794      0
              783    784    795   -798    801   -818      0
              799    800    819   -822    825   -834      0
              823    824    835   -839      0
              840   -845    848   -853      0
              846    847    854   -857    860   -877      0
              858    859    878   -881    884   -891      0
              882    883    892   -895    898   -905      0
              896    897    906   -909    912   -920      0
              910    911    921   -924    927   -937      0
              925    926    938   -941    944   -952      0
              942    943    953   -956    959   -967      0
              957    958    968   -972      0
              973   -979      0
              980   -985    988   -996      0
              986    987    997  -1000   1003  -1006      0
             1001   1002   1007  -1010   1013  -1022      0
             1011   1012   1023  -1026   1029  -1039      0
             1027   1028   1040  -1043   1046  -1054      0
             1044   1045   1055  -1058   1061  -1070      0
             1059   1060   1071  -1074   1077  -1085      0
             1075   1076   1086  -1089   1092  -1101      0
             1090   1091   1102  -1105   1108  -1117      0
             1106   1107   1118  -1121   1124  -1136      0
             1122   1123   1137  -1140   1143  -1158      0
             1141   1142   1159  -1162   1165  -1175      0
             1163   1164   1176  -1179   1182  -1189      0
             1180   1181   1190  -1193   1196  -1213      0
             1194   1195   1214  -1217   1220  -1233      0
             1218   1219   1234  -1237   1240  -1247      0
             1238   1239   1248  -1251   1254  -1269      0
             1252   1253   1270  -1273   1276  -1284      0
             1274   1275   1285  -1288   1291  -1298      0
             1289   1290   1299  -1302   1305  -1319      0
             1303   1304   1320  -1323   1326  -1331      0
             1324   1325   1332  -1335   1338  -1351      0
             1336   1337   1352  -1355   1358  -1363      0
             1356   1357   1364  -1367   1370  -1382      0
             1368   1369   1383  -1386   1389  -1392      0
             1387   1388   1393  -1396   1399  -1408      0
             1397   1398   1409  -1412   1415  -1427      0
             1413   1414   1428  -1431   1434  -1451      0
             1432   1433   1452  -1455   1458  -1470      0
             1456   1457   1471  -1474   1477  -1492      0
             1475   1476   1493  -1496   1499  -1506      0
             1497   1498   1507  -1509   1512  -1520      0
             1510   1511   1521  -1524   1527  -1539      0
             1525   1526   1540  -1543   1546  -1553      0
             1544   1545   1554  -1557   1560  -1573      0
             1558   1559   1574  -1577   1580  -1597      0
             1578   1579   1598  -1601   1604  -1614      0
             1602   1603   1615  -1618   1621  -1628      0
             1619   1620   1629  -1632   1635  -1644      0
             1633   1634   1645  -1648   1651  -1654      0
             1649   1650   1655  -1657   1660  -1668      0
             1658   1659   1669  -1672   1675  -1678      0
             1673   1674   1679  -1682   1685  -1689      0
             1683   1684   1690  -1693   1696  -1708      0
             1694   1695   1709  -1711   1714  -1722      0
             1712   1713   1723  -1726   1729  -1737      0
             1727   1728   1738  -1741   1744  -1761      0
             1742   1743   1762  -1765   1768  -1773      0
             1766   1767   1774  -1777   1780  -1797      0
             1778   1779   1798  -1801   1804  -1807      0
             1802   1803   1808  -1811   1814  -1822      0
             1812   1813   1823  -1826   1829  -1833      0
             1827   1828   1834  -1837   1840  -1847      0
             1838   1839   1848  -1851   1854  -1866      0
             1852   1853   1867  -1870   1873  -1883      0
             1871   1872   1884  -1887   1890  -1897      0
             1888   1889   1898  -1901   1904  -1914      0
             1902   1903   1915  -1918   1921  -1936      0
             1919   1920   1937  -1940   1943  -1950      0
             1941   1942   1951  -1955      0
             1956  -1961   1964  -1976      0
             1962   1963   1977  -1980   1983  -1992      0
             1981   1982   1993  -1996   1999  -2003      0
             1997   1998   2004  -2008      0
             2009  -2014   2017  -2030      0
             2015   2016   2031  -2035      0
             2036  -2041   2044  -2061      0
             2042   2043   2062  -2065   2068  -2075      0
             2066   2067   2076  -2079   2082  -2092      0
             2080   2081   2093  -2096   2099  -2107      0
             2097   2098   2108  -2111   2114  -2129      0
             2112   2113   2130  -2134      0
             2135  -2140   2143  -2160      0
             2141   2142   2161  -2164   2167  -2177      0
             2165   2166   2178  -2181   2184  -2188      0
             2182   2183   2189  -2192   2195  -2202      0
             2193   2194   2203  -2206   2209  -2226      0
             2207   2208   2227  -2230   2233  -2245      0
             2231   2232   2246  -2249   2252  -2267      0
             2250   2251   2268  -2271   2274  -2284      0
             2272   2273   2285  -2288   2291  -2303      0
             2289   2290   2304  -2307   2310  -2318      0
             2308   2309   2319  -2322   2325  -2334      0
             2323   2324   2335  -2337   2340  -2348      0
             2338   2339   2349  -2352   2355  -2369      0
             2353   2354   2370  -2373   2376  -2385      0
             2374   2375   2386  -2389   2392  -2397      0
             2390   2391   2398  -2401   2404  -2421      0
             2402   2403   2422  -2425   2428  -2435      0
             2426   2427   2436  -2439   2442  -2446      0
             2440   2441   2447  -2450   2453  -2456
             2655   2656   2671  -2674   2677  -2680      0
             2451   2452   2457  -2460   2463  -2478      0
             2461   2462   2479  -2482   2485  -2497      0
             2483   2484   2498  -2501   2504  -2508      0
             2502   2503   2509  -2512   2515  -2519      0
             2513   2514   2520  -2523   2526  -2530      0
             2524   2525   2531  -2534   2537  -2550      0
             2535   2536   2551  -2554   2557  -2569      0
             2555   2556   2570  -2573   2576  -2588      0
             2574   2575   2589  -2592   2595  -2602      0
             2593   2594   2603  -2606   2609  -2619      0
             2607   2608   2620  -2623   2626  -2633      0
             2624   2625   2634  -2637   2640  -2650      0
             2638   2639   2651  -2654   2657  -2670      0
             2675   2676   2681  -2684   2687  -2690      0
             2685   2686   2691  -2695      0
             2696  -2701   2704  -2718      0
             2702   2703   2719  -2722   2725  -2730      0
             2723   2724   2731  -2734   2737  -2744      0
             2735   2736   2745  -2748   2751  -2766      0
             2749   2750   2767  -2770   2773  -2783      0
             2771   2772   2784  -2787   2790  -2798      0
             2788   2789   2799  -2802   2805  -2810      0
             2803   2804   2811  -2814   2817  -2820      0
             2815   2816   2821  -2824   2827  -2830
             3220  -3225   3228  -3231      0
             2825   2826   2831  -2834   2837  -2847      0
             2835   2836   2848  -2852      0
             2853  -2858   2861  -2866      0
             2859   2860   2867  -2870   2873  -2877      0
             2871   2872   2878  -2882      0
             2883  -2889      0
             2890  -2894   2897  -2905      0
             2895   2896   2906  -2909   2912  -2922      0
             2910   2911   2923  -2926   2929  -2938      0
             2927   2928   2939  -2942   2945  -2952      0
             2943   2944   2953  -2956   2959  -2976      0
             2957   2958   2977  -2980   2983  -2996      0
             2981   2982   2997  -3000   3003  -3018      0
             3001   3002   3019  -3022   3025  -3030      0
             3023   3024   3031  -3034   3037  -3044      0
             3035   3036   3045  -3048   3051  -3065      0
             3049   3050   3066  -3069   3072  -3085      0
             3070   3071   3086  -3089   3092  -3101      0
             3090   3091   3102  -3105   3108  -3115      0
             3106   3107   3116  -3120      0
             3121  -3126   3129  -3141      0
             3127   3128   3142  -3145   3148  -3157      0
             3146   3147   3158  -3161   3164  -3168      0
             3162   3163   3169  -3172   3175  -3192      0
             3173   3174   3193  -3197      0
             3198  -3203   3206  -3214      0
             3204   3205   3215  -3219      0
             3226   3227   3232  -3235   3238  -3241      0
             3236   3237   3242  -3245   3248  -3265      0
             3246   3247   3266  -3269   3272  -3287      0
             3270   3271   3288  -3292      0
             3293  -3298   3301  -3316      0
             3299   3300   3317  -3320   3323  -3337      0
             3321   3322   3338  -3342      0
             3343  -3348   3351  -3363      0
             3349   3350   3364  -3367   3370  -3384      0
             3368   3369   3385  -3388   3391  -3398      0
             3389   3390   3399  -3402   3405  -3420      0
             3403   3404   3421  -3424   3427  -3436      0
             3425   3426   3437  -3440   3443  -3450      0
             3441   3442   3451  -3454   3457  -3460      0
             3455   3456   3461  -3464   3467  -3480      0
             3465   3466   3481  -3484   3487  -3499      0
             3485   3486   3500  -3503   3506  -3521      0
             3504   3505   3522  -3525   3528  -3545      0
             3526   3527   3546  -3549   3552  -3564      0
             3550   3551   3565  -3568   3571  -3576      0
             3569   3570   3577  -3580   3583  -3600      0
             3581   3582   3601  -3604   3607  -3611      0
             3605   3606   3612  -3615   3618  -3628      0
             3616   3617   3629  -3632   3635  -3650      0
             3633   3634   3651  -3654   3657  -3664      0
             3655   3656   3665  -3689      0
             3690  -3756      0
 $end
 $fmohyb
  6-31G        9   5
    1 0  -0.067724   0.300281   0.000000   0.000000   0.606750
          0.306535   0.000000   0.000000   0.309793
    0 1  -0.067730   0.300310   0.572037   0.000000  -0.202234
          0.306552   0.292061   0.000000  -0.103255
    0 1  -0.067730   0.300310  -0.286019  -0.495398  -0.202234
          0.306552  -0.146031  -0.252933  -0.103255
    0 1  -0.067730   0.300310  -0.286019   0.495398  -0.202234
          0.306552  -0.146031   0.252933  -0.103255
    0 1   1.011954  -0.016447   0.000000   0.000000   0.000000
         -0.059374   0.000000   0.000000  -0.000001
  MINI         5   5
    1 0  -0.109772   0.515046   0.000000   0.000000   0.864512
    0 1  -0.109775   0.515062   0.815062   0.000000  -0.288166
    0 1  -0.109775   0.515062  -0.407531  -0.705864  -0.288166
    0 1  -0.109775   0.515062  -0.407531   0.705864  -0.288166
    0 1   0.996474   0.015610   0.000000   0.000000   0.000000
 $end
 $fmobnd
      -5     7  6-31G       MINI      
     -24    26  6-31G       MINI      
     -40    43  6-31G       MINI      
     -47    50  6-31G       MINI      
     -54    56  6-31G       MINI      
     -71    73  6-31G       MINI      
     -86    88  6-31G       MINI      
     -96    98  6-31G       MINI      
    -118   120  6-31G       MINI      
    -130   133  6-31G       MINI      
    -137   139  6-31G       MINI      
    -152   154  6-31G       MINI      
    -161   163  6-31G       MINI      
    -176   178  6-31G       MINI      
    -200   202  6-31G       MINI      
    -217   219  6-31G       MINI      
    -227   229  6-31G       MINI      
    -246   248  6-31G       MINI      
    -265   267  6-31G       MINI      
    -284   286  6-31G       MINI      
    -298   300  6-31G       MINI      
    -313   315  6-31G       MINI      
    -328   330  6-31G       MINI      
    -342   344  6-31G       MINI      
    -357   360  6-31G       MINI      
    -364   366  6-31G       MINI      
    -384   386  6-31G       MINI      
    -394   397  6-31G       MINI      
    -401   404  6-31G       MINI      
    -408   410  6-31G       MINI      
    -422   424  6-31G       MINI      
    -441   443  6-31G       MINI      
    -460   462  6-31G       MINI      
    -471   473  6-31G       MINI      
    -486   488  6-31G       MINI      
    -506   508  6-31G       MINI      
    -527   529  6-31G       MINI      
    -546   548  6-31G       MINI      
    -565   567  6-31G       MINI      
    -579   581  6-31G       MINI      
    -589   591  6-31G       MINI      
    -599   601  6-31G       MINI      
    -616   618  6-31G       MINI      
    -626   628  6-31G       MINI      
    -645   647  6-31G       MINI      
    -666   668  6-31G       MINI      
    -683   685  6-31G       MINI      
    -693   695  6-31G       MINI      
    -715   717  6-31G       MINI      
    -739   741  6-31G       MINI      
    -759   761  6-31G       MINI      
    -781   783  6-31G       MINI      
    -797   799  6-31G       MINI      
    -821   823  6-31G       MINI      
    -837   840  6-31G       MINI      
    -844   846  6-31G       MINI      
    -856   858  6-31G       MINI      
    -880   882  6-31G       MINI      
    -894   896  6-31G       MINI      
    -908   910  6-31G       MINI      
    -923   925  6-31G       MINI      
    -940   942  6-31G       MINI      
    -955   957  6-31G       MINI      
    -970   973  6-31G       MINI      
    -977   980  6-31G       MINI      
    -984   986  6-31G       MINI      
    -999  1001  6-31G       MINI      
   -1009  1011  6-31G       MINI      
   -1025  1027  6-31G       MINI      
   -1042  1044  6-31G       MINI      
   -1057  1059  6-31G       MINI      
   -1073  1075  6-31G       MINI      
   -1088  1090  6-31G       MINI      
   -1104  1106  6-31G       MINI      
   -1120  1122  6-31G       MINI      
   -1139  1141  6-31G       MINI      
   -1161  1163  6-31G       MINI      
   -1178  1180  6-31G       MINI      
   -1192  1194  6-31G       MINI      
   -1216  1218  6-31G       MINI      
   -1236  1238  6-31G       MINI      
   -1250  1252  6-31G       MINI      
   -1272  1274  6-31G       MINI      
   -1287  1289  6-31G       MINI      
   -1301  1303  6-31G       MINI      
   -1322  1324  6-31G       MINI      
   -1334  1336  6-31G       MINI      
   -1354  1356  6-31G       MINI      
   -1366  1368  6-31G       MINI      
   -1385  1387  6-31G       MINI      
   -1395  1397  6-31G       MINI      
   -1411  1413  6-31G       MINI      
   -1430  1432  6-31G       MINI      
   -1454  1456  6-31G       MINI      
   -1473  1475  6-31G       MINI      
   -1495  1497  6-31G       MINI      
   -1508  1510  6-31G       MINI      
   -1523  1525  6-31G       MINI      
   -1542  1544  6-31G       MINI      
   -1556  1558  6-31G       MINI      
   -1576  1578  6-31G       MINI      
   -1600  1602  6-31G       MINI      
   -1617  1619  6-31G       MINI      
   -1631  1633  6-31G       MINI      
   -1647  1649  6-31G       MINI      
   -1656  1658  6-31G       MINI      
   -1671  1673  6-31G       MINI      
   -1681  1683  6-31G       MINI      
   -1692  1694  6-31G       MINI      
   -1710  1712  6-31G       MINI      
   -1725  1727  6-31G       MINI      
   -1740  1742  6-31G       MINI      
   -1764  1766  6-31G       MINI      
   -1776  1778  6-31G       MINI      
   -1800  1802  6-31G       MINI      
   -1810  1812  6-31G       MINI      
   -1825  1827  6-31G       MINI      
   -1836  1838  6-31G       MINI      
   -1850  1852  6-31G       MINI      
   -1869  1871  6-31G       MINI      
   -1886  1888  6-31G       MINI      
   -1900  1902  6-31G       MINI      
   -1917  1919  6-31G       MINI      
   -1939  1941  6-31G       MINI      
   -1953  1956  6-31G       MINI      
   -1960  1962  6-31G       MINI      
   -1979  1981  6-31G       MINI      
   -1995  1997  6-31G       MINI      
   -2006  2009  6-31G       MINI      
   -2013  2015  6-31G       MINI      
   -2033  2036  6-31G       MINI      
   -2040  2042  6-31G       MINI      
   -2064  2066  6-31G       MINI      
   -2078  2080  6-31G       MINI      
   -2095  2097  6-31G       MINI      
   -2110  2112  6-31G       MINI      
   -2132  2135  6-31G       MINI      
   -2139  2141  6-31G       MINI      
   -2163  2165  6-31G       MINI      
   -2180  2182  6-31G       MINI      
   -2191  2193  6-31G       MINI      
   -2205  2207  6-31G       MINI      
   -2229  2231  6-31G       MINI      
   -2248  2250  6-31G       MINI      
   -2270  2272  6-31G       MINI      
   -2287  2289  6-31G       MINI      
   -2306  2308  6-31G       MINI      
   -2321  2323  6-31G       MINI      
   -2336  2338  6-31G       MINI      
   -2351  2353  6-31G       MINI      
   -2372  2374  6-31G       MINI      
   -2388  2390  6-31G       MINI      
   -2400  2402  6-31G       MINI      
   -2424  2426  6-31G       MINI      
   -2438  2440  6-31G       MINI      
   -2449  2451  6-31G       MINI      
   -2459  2461  6-31G       MINI      
   -2481  2483  6-31G       MINI      
   -2500  2502  6-31G       MINI      
   -2511  2513  6-31G       MINI      
   -2522  2524  6-31G       MINI      
   -2533  2535  6-31G       MINI      
   -2553  2555  6-31G       MINI      
   -2572  2574  6-31G       MINI      
   -2591  2593  6-31G       MINI      
   -2605  2607  6-31G       MINI      
   -2622  2624  6-31G       MINI      
   -2636  2638  6-31G       MINI      
   -2653  2655  6-31G       MINI      
   -2673  2675  6-31G       MINI      
   -2683  2685  6-31G       MINI      
   -2693  2696  6-31G       MINI      
   -2700  2702  6-31G       MINI      
   -2721  2723  6-31G       MINI      
   -2733  2735  6-31G       MINI      
   -2747  2749  6-31G       MINI      
   -2769  2771  6-31G       MINI      
   -2786  2788  6-31G       MINI      
   -2801  2803  6-31G       MINI      
   -2813  2815  6-31G       MINI      
   -2823  2825  6-31G       MINI      
   -2833  2835  6-31G       MINI      
   -2850  2853  6-31G       MINI      
   -2857  2859  6-31G       MINI      
   -2869  2871  6-31G       MINI      
   -2880  2883  6-31G       MINI      
   -2887  2890  6-31G       MINI      
   -2893  2895  6-31G       MINI      
   -2908  2910  6-31G       MINI      
   -2925  2927  6-31G       MINI      
   -2941  2943  6-31G       MINI      
   -2955  2957  6-31G       MINI      
   -2979  2981  6-31G       MINI      
   -2999  3001  6-31G       MINI      
   -3021  3023  6-31G       MINI      
   -3033  3035  6-31G       MINI      
   -3047  3049  6-31G       MINI      
   -3068  3070  6-31G       MINI      
   -3088  3090  6-31G       MINI      
   -3104  3106  6-31G       MINI      
   -3118  3121  6-31G       MINI      
   -3125  3127  6-31G       MINI      
   -3144  3146  6-31G       MINI      
   -3160  3162  6-31G       MINI      
   -3171  3173  6-31G       MINI      
   -3195  3198  6-31G       MINI      
   -3202  3204  6-31G       MINI      
   -3217  3220  6-31G       MINI      
   -3224  3226  6-31G       MINI      
   -3234  3236  6-31G       MINI      
   -3244  3246  6-31G       MINI      
   -3268  3270  6-31G       MINI      
   -3290  3293  6-31G       MINI      
   -3297  3299  6-31G       MINI      
   -3319  3321  6-31G       MINI      
   -3340  3343  6-31G       MINI      
   -3347  3349  6-31G       MINI      
   -3366  3368  6-31G       MINI      
   -3387  3389  6-31G       MINI      
   -3401  3403  6-31G       MINI      
   -3423  3425  6-31G       MINI      
   -3439  3441  6-31G       MINI      
   -3453  3455  6-31G       MINI      
   -3463  3465  6-31G       MINI      
   -3483  3485  6-31G       MINI      
   -3502  3504  6-31G       MINI      
   -3524  3526  6-31G       MINI      
   -3548  3550  6-31G       MINI      
   -3567  3569  6-31G       MINI      
   -3579  3581  6-31G       MINI      
   -3603  3605  6-31G       MINI      
   -3614  3616  6-31G       MINI      
   -3631  3633  6-31G       MINI      
   -3653  3655  6-31G       MINI      
 $end
 $data
 Structure from PDB
 C1
 o.1-1     8
       n31 6

 n.1-1     7
       n31 6

 c.1-1     6
       n31 6

 s.1-1    16
       n31 6

 cl.1-1    17
       n31 6

 h.1-1     1
       n31 6

 $end
 $fmoxyz
      1      N           14.63200000       30.81800000        9.66100000
      2      H           15.45610000       31.40400000        9.01320000
      3      H           13.71960000       30.38980000        9.01490000
      4      H           15.31830000       29.86200000        9.85750000
      5      C           14.01800000       31.97400000       10.36800000
      6      H           12.95920000       31.58610000       10.73780000
      7      C           13.73000000       33.10000000        9.36400000
      8      O           14.64700000       33.70300000        8.80600000
      9      C           14.96900000       32.52000000       11.48200000
     10      H           15.68130000       33.15350000       10.78170000
     11      C           15.57400000       31.36600000       12.28600000
     12      H           16.20240000       31.68140000       13.24500000
     13      H           16.34970000       30.66530000       11.71600000
     14      C           14.20500000       33.45400000       12.41800000
     15      H           14.82720000       33.83370000       13.36260000
     16      H           13.98230000       34.46260000       11.81210000
     17      H           13.13790000       32.98440000       12.68010000
     18      C           14.59500000       30.67100000       13.19200000
     19      H           13.54350000       30.25600000       12.80110000
     20      H           14.19970000       31.31270000       14.12230000
     21      H           15.06800000       29.63720000       13.56360000
     22      N           12.45100000       33.37500000        9.13000000
     23      H           11.88760000       33.55000000       10.15400000
     24      C           12.06200000       34.43700000        8.21400000
     25      H           12.90330000       34.62540000        7.39870000
     26      C           11.92900000       35.71200000        9.03000000
     27      O           11.11800000       35.78000000        9.95200000
     28      C           10.71600000       34.13600000        7.55600000
     29      H            9.71940000       34.16360000        8.19990000