 $contrl runtyp=energy nprint=-5 maxit=200 $end
 $system mwords=187500 memddi=0 $end
 $gddi ngroup=1 $end
 $scf dirscf=.t. npunch=0 $end
 $fmoprp
   ngrfmo(1)=1,1,0,0,0,  0,0,0,0,0
   ipieda=1
   naodir=220
   nprint=9
   maxit=100
 $end
 $fmo
      nlayer=1
      mplevl(1)=2
      nfrag=95
      icharg(1)= 1, 0, 0, 0, 0,-1, 0,-1, 0, 0,
                 0, 1, 0, 1, 0, 0, 0, 0, 1, 0,
                 0, 1, 0, 0, 0, 0, 0, 1,-1, 0,
                 0, 0, 0, 1,-1, 0, 0, 0, 0, 0,
                 0, 0, 0, 0, 0, 0, 1, 1, 0, 0,
                -1,-1, 1, 0, 0, 0, 0, 0, 0, 0,
                 0, 0,-1, 0, 0, 0,-1, 0, 0, 0,
                 0, 0, 0, 0, 0, 0, 1,-1, 0, 1,
                 1, 0, 0, 0, 0, 0, 0, 1, 0, 0,
                 0, 0, 0,-1, 0
      frgnam(1)= GLN001, ILE002, PRO003, ALA004, SER005,
                 GLU006, GLN007, GLU008, THR009, LEU010,
                 VAL011, ARG012, PRO013, LYS014, PRO015,
                 LEU016, LEU017, LEU018, LYS019, LEU020,
                 LEU021, LYS022, SER023, VAL024, GLY025,
                 ALA026, GLN027, LYS028, ASP029, THR030,
                 TYR031, THR032, MET033, LYS034, GLU035,
                 VAL036, LEU037, PHE038, TYR039, LEU040,
                 GLY041, GLN042, TYR043, ILE044, MET045,
                 THR046, LYS047, ARG048, LEU049, TYR050,
                 ASP051, GLU052, LYS053, GLN054, GLN055,
                 HIS056, ILE057, VAL058, TYR059, CYS060,
                 SER061, ASN062, ASP063, LEU064, LEU065,
                 GLY066, ASP067, LEU068, PHE069, GLY070,
                 VAL071, PRO072, SER073, PHE074, SER075,
                 VAL076, LYS077, GLU078, HIS079, ARG080,
                 LYS081, ILE082, TYR083, THR084, MET085,
                 ILE086, TYR087, ARG088, ASN089, LEU090,
                 VAL091, VAL092, VAL093, ASN094, UNK001
      indat(1)= 0
                1     -6      9    -19      0
                7      8     20    -23     26    -38      0
               24     25     39    -41     44    -52      0
               42     43     53    -56     59    -62      0
               57     58     63    -66     69    -73      0
               67     68     74    -77     80    -88      0
               78     79     89    -92     95   -105      0
               93     94    106   -109    112   -120      0
              110    111    121   -124    127   -134      0
              125    126    135   -138    141   -153      0
              139    140    154   -157    160   -169      0
              158    159    170   -173    176   -193      0
              174    175    194   -196    199   -207      0
              197    198    208   -211    214   -229      0
              212    213    230   -232    235   -243      0
              233    234    244   -247    250   -262      0
              248    249    263   -266    269   -281      0
              267    268    282   -285    288   -300      0
              286    287    301   -304    307   -322      0
              305    306    323   -326    329   -341      0
              327    328    342   -345    348   -360      0
              346    347    361   -364    367   -382      0
              365    366    383   -386    389   -393      0
              387    388    394   -397    400   -409      0
              398    399    410   -414      0
              415   -420    423   -426      0
              421    422    427   -430    433   -443      0
              431    432    444   -447    450   -465      0
              448    449    466   -469    472   -477      0
              470    471    478   -481    484   -491      0
              482    483    492   -495    498   -512      0
              496    497    513   -516    519   -526      0
              517    518    527   -530    533   -543      0
              531    532    544   -547    550   -565      0
              548    549    566   -569    572   -580      0
              570    571    581   -584    587   -596      0
              585    586    597   -600    603   -615      0
              601    602    616   -619    622   -635      0
              620    621    636   -639    642   -656      0
              640    641    657   -660    663   -675      0
              661    662    676   -680      0
              681   -686    689   -699      0
              687    688    700   -703    706   -720      0
              704    705    721   -724    727   -739      0
              725    726    740   -743    746   -756      0
              744    745    757   -760    763   -770      0
              761    762    771   -774    777   -792      0
              775    776    793   -796    799   -816      0
              797    798    817   -820    823   -835      0
              821    822    836   -839    842   -856      0
              840    841    857   -860    863   -868      0
              861    862    869   -872    875   -883      0
              873    874    884   -887    890   -905      0
              888    889    906   -909    912   -922      0
              910    911    923   -926    929   -939      0
              927    928    940   -943    946   -956      0
              944    945    957   -960    963   -975      0
              961    962    976   -979    982   -991      0
              980    981    992   -995    998  -1012      0
              996    997   1013  -1016   1019  -1023      0
             1017   1018   1024  -1027   1030  -1034      0
             1028   1029   1035  -1038   1041  -1048      0
             1039   1040   1049  -1052   1055  -1060      0
             1053   1054   1061  -1064   1067  -1079      0
             1065   1066   1080  -1083   1086  -1098      0
             1084   1085   1099  -1103      0
             1104  -1109   1112  -1117      0
             1110   1111   1118  -1121   1124  -1136      0
             1122   1123   1137  -1140   1143  -1156      0
             1141   1142   1157  -1161      0
             1162  -1167   1170  -1179      0
             1168   1169   1180  -1182   1185  -1193      0
             1183   1184   1194  -1197   1200  -1204      0
             1198   1199   1205  -1208   1211  -1224      0
             1209   1210   1225  -1228   1231  -1235      0
             1229   1230   1236  -1239   1242  -1251      0
             1240   1241   1252  -1255   1258  -1273      0
             1256   1257   1274  -1277   1280  -1288      0
             1278   1279   1289  -1292   1295  -1305      0
             1293   1294   1306  -1309   1312  -1329      0
             1310   1311   1330  -1333   1336  -1351      0
             1334   1335   1352  -1355   1358  -1370      0
             1356   1357   1371  -1374   1377  -1391      0
             1375   1376   1392  -1395   1398  -1405      0
             1396   1397   1406  -1409   1412  -1422      0
             1410   1411   1423  -1426   1429  -1441      0
             1427   1428   1442  -1445   1448  -1462      0
             1446   1447   1463  -1466   1469  -1486      0
             1467   1468   1487  -1490   1493  -1500      0
             1491   1492   1501  -1504   1507  -1519      0
             1505   1506   1520  -1523   1526  -1535      0
             1524   1525   1536  -1539   1542  -1551      0
             1540   1541   1552  -1555   1558  -1567      0
             1556   1557   1568  -1582      0
             1583  -1640      0
 $end
 $fmohyb
  6-31G        9   5
    1 0  -0.067724   0.300281   0.000000   0.000000   0.606750
          0.306535   0.000000   0.000000   0.309793
    0 1  -0.067730   0.300310   0.572037   0.000000  -0.202234
          0.306552   0.292061   0.000000  -0.103255
    0 1  -0.067730   0.300310  -0.286019  -0.495398  -0.202234
          0.306552  -0.146031  -0.252933  -0.103255
    0 1  -0.067730   0.300310  -0.286019   0.495398  -0.202234
          0.306552  -0.146031   0.252933  -0.103255
    0 1   1.011954  -0.016447   0.000000   0.000000   0.000000
         -0.059374   0.000000   0.000000  -0.000001
  MINI         5   5
    1 0  -0.109772   0.515046   0.000000   0.000000   0.864512
    0 1  -0.109775   0.515062   0.815062   0.000000  -0.288166
    0 1  -0.109775   0.515062  -0.407531  -0.705864  -0.288166
    0 1  -0.109775   0.515062  -0.407531   0.705864  -0.288166
    0 1   0.996474   0.015610   0.000000   0.000000   0.000000
 $end
 $fmobnd
      -5     7  6-31G       MINI      
     -22    24  6-31G       MINI      
     -40    42  6-31G       MINI      
     -55    57  6-31G       MINI      
     -65    67  6-31G       MINI      
     -76    78  6-31G       MINI      
     -91    93  6-31G       MINI      
    -108   110  6-31G       MINI      
    -123   125  6-31G       MINI      
    -137   139  6-31G       MINI      
    -156   158  6-31G       MINI      
    -172   174  6-31G       MINI      
    -195   197  6-31G       MINI      
    -210   212  6-31G       MINI      
    -231   233  6-31G       MINI      
    -246   248  6-31G       MINI      
    -265   267  6-31G       MINI      
    -284   286  6-31G       MINI      
    -303   305  6-31G       MINI      
    -325   327  6-31G       MINI      
    -344   346  6-31G       MINI      
    -363   365  6-31G       MINI      
    -385   387  6-31G       MINI      
    -396   398  6-31G       MINI      
    -412   415  6-31G       MINI      
    -419   421  6-31G       MINI      
    -429   431  6-31G       MINI      
    -446   448  6-31G       MINI      
    -468   470  6-31G       MINI      
    -480   482  6-31G       MINI      
    -494   496  6-31G       MINI      
    -515   517  6-31G       MINI      
    -529   531  6-31G       MINI      
    -546   548  6-31G       MINI      
    -568   570  6-31G       MINI      
    -583   585  6-31G       MINI      
    -599   601  6-31G       MINI      
    -618   620  6-31G       MINI      
    -638   640  6-31G       MINI      
    -659   661  6-31G       MINI      
    -678   681  6-31G       MINI      
    -685   687  6-31G       MINI      
    -702   704  6-31G       MINI      
    -723   725  6-31G       MINI      
    -742   744  6-31G       MINI      
    -759   761  6-31G       MINI      
    -773   775  6-31G       MINI      
    -795   797  6-31G       MINI      
    -819   821  6-31G       MINI      
    -838   840  6-31G       MINI      
    -859   861  6-31G       MINI      
    -871   873  6-31G       MINI      
    -886   888  6-31G       MINI      
    -908   910  6-31G       MINI      
    -925   927  6-31G       MINI      
    -942   944  6-31G       MINI      
    -959   961  6-31G       MINI      
    -978   980  6-31G       MINI      
    -994   996  6-31G       MINI      
   -1015  1017  6-31G       MINI      
   -1026  1028  6-31G       MINI      
   -1037  1039  6-31G       MINI      
   -1051  1053  6-31G       MINI      
   -1063  1065  6-31G       MINI      
   -1082  1084  6-31G       MINI      
   -1101  1104  6-31G       MINI      
   -1108  1110  6-31G       MINI      
   -1120  1122  6-31G       MINI      
   -1139  1141  6-31G       MINI      
   -1159  1162  6-31G       MINI      
   -1166  1168  6-31G       MINI      
   -1181  1183  6-31G       MINI      
   -1196  1198  6-31G       MINI      
   -1207  1209  6-31G       MINI      
   -1227  1229  6-31G       MINI      
   -1238  1240  6-31G       MINI      
   -1254  1256  6-31G       MINI      
   -1276  1278  6-31G       MINI      
   -1291  1293  6-31G       MINI      
   -1308  1310  6-31G       MINI      
   -1332  1334  6-31G       MINI      
   -1354  1356  6-31G       MINI      
   -1373  1375  6-31G       MINI      
   -1394  1396  6-31G       MINI      
   -1408  1410  6-31G       MINI      
   -1425  1427  6-31G       MINI      
   -1444  1446  6-31G       MINI      
   -1465  1467  6-31G       MINI      
   -1489  1491  6-31G       MINI      
   -1503  1505  6-31G       MINI      
   -1522  1524  6-31G       MINI      
   -1538  1540  6-31G       MINI      
   -1554  1556  6-31G       MINI      
 $end
 $data
 Structure from PDB
 C1
 s.1-1    16
       n31 6

 cl.1-1    17
       n31 6

 c.1-1     6
       n31 6

 h.1-1     1
       n31 6

 o.1-1     8
       n31 6

 n.1-1     7
       n31 6

 $end
 $fmoxyz
      1      N           -0.51400000        7.71500000      -12.13200000
      2      H            0.40000000        7.78000000      -12.90240000
      3      H           -1.48120000        7.85250000      -12.82930000
      4      H           -0.53390000        8.71780000      -11.48530000
      5      C           -0.54300000        6.43600000      -11.35900000
      6      H           -1.62560000        6.50650000      -10.86450000
      7      C            0.62300000        6.37800000      -10.34900000
      8      O            1.79600000        6.50900000      -10.71800000
      9      C           -0.52600000        5.23800000      -12.31600000
     10      H            0.52540000        5.13900000      -12.88110000
     11      H           -1.29590000        5.32480000      -13.22830000
     12      C           -0.73400000        3.88000000      -11.65700000
     13      H            0.11930000        3.41060000      -10.96160000
     14      H           -0.76050000        3.03910000      -12.51310000
     15      C           -2.06200000        3.75800000      -10.93700000
     16      N           -3.15400000        3.89400000      -11.67600000
     17      H           -4.15550000        4.33470000      -11.20410000
     18      H           -3.44580000        3.28380000      -12.65720000
     19      O           -2.10200000        3.55500000       -9.72600000
     20      N            0.27600000        6.15000000       -9.08400000
     21      H           -0.63690000        5.44460000       -8.79320000
     22      C            1.18900000        6.32100000       -7.95600000
     23      H            2.10490000        6.93730000       -8.39400000
     24      C            1.68800000        4.95200000       -7.45500000
     25      O            0.88100000        4.13900000       -7.01500000
     26      C            0.48800000        7.03400000       -6.77900000
     27      H           -0.30170000        6.30570000       -6.25300000
     28      C           -0.37000000        8.23200000       -7.25100000
     29      H           -0.93680000        8.57160000       -6.25120000
     30      H           -1.34810000        7.82830000       -7.82220000
     31      C            1.51700000        7.47600000       -5.74000000
     32      H            1.89980000        6.46830000       -5.22920000
     33      H            0.90190000        7.89070000       -4.80570000
     34      H            2.42330000        8.18140000       -6.06190000
     35      C            0.37600000        9.29800000       -8.03500000
     36      H            1.13300000        9.01830000       -8.91710000
     37      H            1.09610000       10.03740000       -7.44010000
     38      H           -0.49250000        9.79220000       -8.68280000
     39      N            3.01400000        4.70000000       -7.48600000
     40      C            3.50200000        3.42700000       -6.93700000
     41      H            2.97020000        2.57520000       -7.58070000
     42      C            3.30100000        3.33300000       -5.42000000
     43      O            3.33100000        4.34400000       -4.73500000
     44      C            4.98800000        3.44900000       -7.27000000
     45      H            5.12110000        2.93880000       -8.34860000
     46      H            5.74950000        2.73970000       -6.67980000
     47      C            5.34600000        4.88600000       -7.31100000
     48      H            5.88300000        5.41390000       -6.38400000
     49      H            6.24370000        4.95690000       -8.10510000
     50      C            4.13200000        5.59100000       -7.85700000
     51      H            4.34930000        6.74370000       -7.62770000
     52      H            4.20150000        5.52190000       -9.05260000
     53      N            3.11200000        2.11100000       -4.92700000
     54      H            3.01600000        1.16590000       -5.64410000
     55      C            2.86500000        1.83900000       -3.49400000
     56      H            1.81940000        2.35550000       -3.24100000
     57      C            3.98800000        2.30300000       -2.58800000
     58      O            3.73600000        2.68800000       -1.46000000
     59      C            2.65000000        0.34500000       -3.27300000
     60      H            1.69190000       -0.02960000       -3.89400000
     61      H            3.49550000       -0.45820000       -3.55050000
     62      H            2.33240000        0.01840000       -2.16500000
     63      N            5.22400000        2.24500000       -3.08400000
     64      H            5.47330000        1.29170000       -3.75660000
     65      C            6.40700000        2.72100000       -2.34300000
     66      H            6.51190000        1.94010000       -1.44830000
     67      C            6.37900000        4.18100000       -1.92000000
     68      O            7.08000000        4.55500000       -0.98100000
     69      C            7.67400000        2.47500000       -3.18400000
     70      H            8.64670000        2.67500000       -2.51590000
     71      H            7.86810000        1.37530000       -3.62740000
     72      O            7.59300000        3.17400000       -4.42600000
     73      H            8.62100000        3.72360000       -4.64400000
     74      N            5.59400000        5.01700000       -2.60700000
     75      H            5.74840000        4.86320000       -3.77320000
     76      C            5.52700000        6.45000000       -2.27500000
     77      H            6.65170000        6.80910000       -2.44920000
     78      C            5.12400000        6.66900000       -0.81200000
     79      O            5.65700000        7.56500000       -0.12800000
     80      C            4.59400000        7.19100000       -3.24200000
     81      H            3.54730000        6.62350000       -3.29620000
     82      H            5.11340000        7.32190000       -4.30970000
     83      C            4.19700000        8.63100000       -2.85200000
     84      H            3.79500000        9.18570000       -3.83270000
     85      H            3.61540000        8.62880000       -1.81630000
     86      C            5.37200000        9.60500000       -2.70900000
     87      O            6.48500000        9.27700000       -3.11200000
     88      O            5.19800000       10.71500000       -2.15800000
     89      N            4.19100000        5.85100000       -0.33900000
     90      H            3.42760000        5.42850000       -1.14780000
     91      C            3.68300000        5.94900000        1.03300000
     92      H            3.08080000        6.97600000        1.02440000
     93      C            4.78200000        5.75500000        2.10600000
     94      O            4.64300000        6.27300000        3.22800000
     95      C            2.52300000        4.94200000        1.25000000
     96      H            1.54370000        5.34570000        1.81250000
     97      H            1.86540000        4.76700000        0.25460000
     98      C            2.90400000        3.50900000        1.62600000
     99      H            3.66310000        2.86770000        0.97120000
    100      H            3.21270000        3.33030000        2.76620000
    101      C            1.71300000        2.54500000        1.61800000
    102      N            1.68000000        1.62800000        0.64000000
    103      H            0.63840000        1.54980000        0.06540000
    104      H            2.15590000        0.55100000        0.82740000
    105      O            0.84300000        2.61400000        2.49100000
    106      N            5.84900000        5.02400000        1.75800000
    107      H            5.75180000        4.18720000        0.92340000
    108      C            6.96500000        4.76200000        2.66600000
    109      H            6.59540000        4.51400000        3.77240000
    110      C            7.93800000        5.92500000        2.79700000
    111      O            8.78600000        5.89000000        3.67900000
    112      C            7.76100000        3.52500000        2.22100000
    113      H            8.69890000        3.41040000        2.95770000
    114      H            8.33090000        3.56710000        1.17130000
    115      C            7.01200000        2.22300000        2.39600000
    116      H            5.92330000        1.87800000        2.03710000
    117      H            6.98690000        1.90160000        3.55120000
    118      C            7.78400000        1.02300000        1.88000000
    119      O            9.02800000        0.96400000        1.98300000
    120      O            7.12900000        0.11200000        1.37200000
    121      N            7.81400000        6.94500000        1.93800000
    122      H            6.70890000        7.28710000        1.71300000
    123      C            8.76800000        8.05500000        1.88600000
    124      H            9.76230000        7.44790000        1.62520000
    125      C            8.77700000        8.80400000        3.22600000
    126      O            7.72000000        9.14300000        3.72600000
    127      C            8.37900000        9.03100000        0.76100000
    128      H            7.26980000        9.41510000        0.58460000
    129      C            9.31400000       10.22400000        0.72800000
    130      H            8.67640000       11.16150000        0.35610000
    131      H           10.09590000       10.41980000        1.60190000
    132      H           10.02600000       10.08570000       -0.22680000
    133      O            8.43200000        8.32900000       -0.48000000
    134      H            9.51880000        7.89340000       -0.68870000
    135      N            9.96500000        9.01100000        3.80500000
    136      H           10.90480000        8.47720000        3.30850000
    137      C           10.09400000        9.70400000        5.10800000
    138      H            9.08640000        9.44970000        5.66890000
    139      C           10.29800000       11.19300000        4.84800000
    140      O           11.09700000       11.56900000        3.96000000
    141      C           11.26300000        9.12900000        5.92600000
    142      H           11.74500000        9.67110000        6.87310000
    143      H           12.19540000        8.95830000        5.18930000
    144      C           11.00900000        7.72600000        6.48000000
    145      H           10.61610000        6.93900000        5.67430000
    146      C           12.31900000        7.00700000        6.78200000
    147      H           12.22710000        5.88370000        7.19260000
    148      H           13.05610000        6.89770000        5.83600000
    149      H           13.05090000        7.49260000        7.59680000
    150      C           10.11100000        7.78100000        7.71100000
    151      H           10.50670000        7.39870000        8.76620000
    152      H            9.32460000        6.90860000        7.53100000
    153      H            9.49150000        8.59400000        8.29950000
    154      N            9.56900000       12.02400000        5.60300000
    155      H            9.71300000       11.73350000        6.74220000
    156      C            9.53600000       13.46800000        5.35400000
    157      H           10.64130000       13.72530000        5.00800000
    158      C            9.56500000       14.26200000        6.65200000
    159      O            9.07500000       13.78600000        7.67700000
    160      C            8.28200000       13.89500000        4.55200000
    161      H            8.48180000       15.06180000        4.47460000
    162      C            8.22200000       13.13800000        3.23100000
    163      H            7.19250000       13.53990000        2.77730000
    164      H            8.11150000       12.21400000        2.46200000
    165      H            9.35860000       13.22190000        2.83330000
    166      C            6.99900000       13.69600000        5.38500000
    167      H            6.44950000       12.71340000        4.98900000
    168      H            6.35200000       14.68730000        5.54210000
    169      H            7.12050000       13.44700000        6.54400000
    170      N           10.16500000       15.45500000        6.57800000
    171      H           10.67240000       16.16880000        5.79210000
    172      C           10.22300000       16.42000000        7.67300000
    173      H            9.83420000       15.95810000        8.69220000
    174      C            9.39600000       17.63100000        7.20800000
    175      O            9.83400000       18.36400000        6.31900000
    176      C           11.66500000       16.84600000        7.96400000
    177      H           12.35200000       17.31640000        7.10960000
    178      H           11.56020000       17.81790000        8.66020000
    179      C           12.49400000       15.77900000        8.65800000
    180      H           11.97890000       15.75940000        9.73680000
    181      H           12.42600000       14.61560000        8.41660000
    182      C           13.82400000       16.33700000        9.15600000
    183      H           13.88650000       17.25500000        9.92740000
    184      H           14.43500000       16.94820000        8.32200000
    185      N           14.74100000       15.27400000        9.57700000
    186      H           15.84690000       15.40590000        9.15220000
    187      C           14.85900000       14.78100000       10.80800000
    188      N           14.12500000       15.22500000       11.82300000
    189      H           13.19740000       15.96500000       11.82060000
    190      H           14.88110000       15.60260000       12.66680000
    191      N           15.73400000       13.81200000       11.03300000
    192      H           16.77620000       13.55470000       10.51520000
    193      H           15.70200000       13.07390000       11.96880000
    194      N            8.22500000       17.86000000        7.83400000
    195      C            7.38500000       18.94100000        7.35800000
    196      H            6.98370000       18.66830000        6.27870000
    197      C            7.96100000       20.31900000        7.67800000
    198      O            8.57500000       20.50700000        8.72500000
    199      C            6.07900000       18.73000000        8.12900000
    200      H            5.46390000       17.86040000        7.58670000
    201      H            5.49040000       19.74290000        8.32530000
    202      C            6.50200000       18.10500000        9.41100000
    203      H            6.91680000       18.86440000       10.23150000
    204      H            5.68560000       17.38280000        9.89170000
    205      C            7.66900000       17.22700000        9.05300000
    206      H            8.43940000       17.27500000        9.96350000
    207      H            7.32720000       16.17050000        8.61530000
    208      N            7.75400000       21.26000000        6.76300000
    209      H            7.51550000       20.87340000        5.68070000
    210      C            8.05100000       22.66600000        6.99200000
    211      H            9.12620000       22.67370000        7.50820000
    212      C            7.03900000       23.23300000        8.00400000
    213      O            6.03600000       22.57100000        8.30400000
    214      C            7.99000000       23.41900000        5.64500000
    215      H            6.87300000       23.45130000        5.22420000
    216      H            8.15520000       24.60080000        5.73180000
    217      C            9.06000000       22.94300000        4.66200000
    218      H           10.05330000       23.39010000        5.17310000
    219      H            9.59120000       21.88120000        4.58700000
    220      C            9.08600000       23.77400000        3.37500000
    221      H            8.09660000       24.23780000        2.88700000
    222      H            9.63480000       24.80560000        3.65470000
    223      C            9.90800000       23.06800000        2.30500000
    224      H           11.02140000       23.08020000        2.74720000
    225      H            9.77770000       22.00120000        1.79520000
    226      N           10.15100000       23.87100000        1.06100000
    227      H           10.33700000       25.04990000        1.20440000
    228      H           11.20510000       23.59820000        0.54850000
    229      H            9.51710000       23.94530000        0.04820000
    230      N            7.30300000       24.43500000        8.55500000
    231      C            6.48200000       24.87900000        9.69200000
    232      H            6.76270000       24.22570000       10.64850000
    233      C            4.97200000       24.98100000        9.47000000
    234      O            4.21300000       24.61000000       10.38200000
    235      C            7.07500000       26.25100000       10.03100000
    236      H            6.97740000       26.47020000       11.20430000
    237      H            6.66360000       27.28250000        9.58500000
    238      C            8.50500000       26.10300000        9.65900000
    239      H            9.03680000       27.16460000        9.47750000
    240      H            9.14160000       25.66700000       10.57830000
    241      C            8.52000000       25.26900000        8.41800000
    242      H            8.45230000       26.07340000        7.53740000
    243      H            9.63420000       24.84040000        8.42230000
    244      N            4.52400000       25.45300000        8.30300000