 $contrl runtyp=energy nprint=-5 maxit=200 $end
 $system mwords=187500 memddi=0 $end
 $gddi ngroup=1 $end
 $scf dirscf=.t. npunch=0 $end
 $fmoprp
   ngrfmo(1)=1,1,0,0,0,  0,0,0,0,0
   ipieda=1
   naodir=220
   nprint=9
   maxit=100
 $end
 $fmo
      nlayer=1
      mplevl(1)=2
      nfrag=215
      icharg(1)= 1, 0,-1, 0, 0, 0, 0,-1, 0, 0,
                 0, 0,-1, 0,-1, 0, 0,-1, 0, 0,
                 0, 0, 0, 0,-1, 0, 0, 0, 0, 1,
                 0, 0, 0, 0, 0, 1, 1, 0, 0, 1,
                 0, 0, 0,-1, 0, 0, 0, 0, 1,-1,
                 1, 0, 0, 1, 0, 0, 0, 0, 0, 0,
                -1,-1, 0, 0, 0,-1, 0, 0, 0, 0,
                 0,-1, 0, 0, 0, 0, 0, 0,-1,-1,
                -1, 0,-1, 0, 0, 1, 0, 0, 0, 0,
                 0, 1, 1, 0, 0,-1, 0, 1, 0,-1,
                -1, 0,-1, 0, 0, 0, 0, 0, 0, 0,
                 0, 0, 0, 0, 0, 0, 0, 0, 0, 0,
                 0, 0, 0, 0, 0, 0, 0, 0, 0, 0,
                 0, 0, 0, 0, 0, 0, 0, 0, 0, 0,
                 0, 0, 0, 0, 0, 0, 0, 0, 0, 0,
                 0, 0, 0, 0, 0, 0, 0, 0, 0, 0,
                 0, 0, 0, 0, 0, 0, 0, 0, 0, 0,
                 0, 0, 0, 0, 0, 0, 0, 0, 0, 0,
                 0, 0, 0, 0, 0, 0, 0, 0, 0, 0,
                 0, 0, 0, 0, 0, 0, 0, 0, 0, 0,
                 0, 0, 0, 0, 0, 0, 0, 0, 0, 0,
                 0, 0, 0, 0, 0
      frgnam(1)= HIS001, SER002, ASP003, LEU004, THR005,
                 PHE006, CYS007, GLU008, ILE009, ILE010,
                 LEU011, MET012, GLU013, MET014, GLU015,
                 SER016, HIS017, ASP018, ALA019, ALA020,
                 TRP021, PRO022, PHE023, LEU024, GLU025,
                 PRO026, VAL027, ASN028, PRO029, ARG030,
                 LEU031, VAL032, SER033, GLY034, TYR035,
                 ARG036, ARG037, ILE038, ILE039, LYS040,
                 ASN041, PRO042, MET043, ASP044, PHE045,
                 SER046, THR047, MET048, ARG049, GLU050,
                 ARG051, LEU052, LEU053, ARG054, GLY055,
                 GLY056, TYR057, THR058, SER059, SER060,
                 GLU061, GLU062, PHE063, ALA064, ALA065,
                 ASP066, ALA067, LEU068, LEU069, VAL070,
                 PHE071, ASP072, ASN073, CYS074, GLN075,
                 THR076, PHE077, ASN078, GLU079, ASP080,
                 ASP081, SER082, GLU083, VAL084, GLY085,
                 LYS086, ALA087, GLY088, HIS089, ILE090,
                 MET091, ARG092, ARG093, PHE094, PHE095,
                 GLU096, SER097, ARG098, TRP099, GLU100,
                 GLU101, PHE102, TYR103, HOH001, HOH002,
                 HOH003, HOH004, HOH005, HOH006, HOH007,
                 HOH008, HOH009, HOH010, HOH011, HOH012,
                 HOH013, HOH014, HOH015, HOH016, HOH017,
                 HOH018, HOH019, HOH020, HOH021, HOH022,
                 HOH023, HOH024, HOH025, HOH026, HOH027,
                 HOH028, HOH029, HOH030, HOH031, HOH032,
                 HOH033, HOH034, HOH035, HOH036, HOH037,
                 HOH038, HOH039, HOH040, HOH041, HOH042,
                 HOH043, HOH044, HOH045, HOH046, HOH047,
                 HOH048, HOH049, HOH050, HOH051, HOH052,
                 HOH053, HOH054, HOH055, HOH056, HOH057,
                 HOH058, HOH059, HOH060, HOH061, HOH062,
                 HOH063, HOH064, HOH065, HOH066, HOH067,
                 HOH068, HOH069, HOH070, HOH071, HOH072,
                 HOH073, HOH074, HOH075, HOH076, HOH077,
                 HOH078, HOH079, HOH080, HOH081, HOH082,
                 HOH083, HOH084, HOH085, HOH086, HOH087,
                 HOH088, HOH089, HOH090, HOH091, HOH092,
                 HOH093, HOH094, HOH095, HOH096, HOH097,
                 HOH098, HOH099, HOH100, HOH101, HOH102,
                 HOH103, HOH104, HOH105, HOH106, HOH107,
                 HOH108, HOH109, HOH110, HOH111, UNK001
      indat(1)= 0
                1     -6      9    -19      0
                7      8     20    -23     26    -30      0
               24     25     31    -34     37    -42      0
               35     36     43    -46     49    -61      0
               47     48     62    -65     68    -75      0
               66     67     76    -79     82    -95      0
               80     81     96    -99    102   -106      0
              100    101    107   -110    113   -121      0
              111    112    122   -125    128   -140      0
              126    127    141   -144    147   -159      0
              145    146    160   -163    166   -178      0
              164    165    179   -182    185   -195      0
              183    184    196   -199    202   -210      0
              200    201    211   -214    217   -227      0
              215    216    228   -231    234   -242      0
              232    233    243   -246    249   -253      0
              247    248    254   -257    260   -270      0
              258    259    271   -274    277   -282      0
              275    276    283   -286    289   -292      0
              287    288    293   -296    299   -302      0
              297    298    303   -306    309   -326      0
              307    308    327   -329    332   -340      0
              330    331    341   -344    347   -360      0
              345    346    361   -364    367   -379      0
              365    366    380   -383    386   -394      0
              384    385    395   -397    400   -408      0
              398    399    409   -412    415   -424      0
              413    414    425   -428    431   -438      0
              429    430    439   -441    444   -452      0
              442    443    453   -456    459   -476      0
              457    458    477   -480    483   -495      0
              481    482    496   -499    502   -511      0
              500    501    512   -515    518   -522      0
              516    517    523   -527      0
              528   -533    536   -550      0
              534    535    551   -554    557   -574      0
              555    556    575   -578    581   -598      0
              579    580    599   -602    605   -617      0
              603    604    618   -621    624   -636      0
              622    623    637   -640    643   -658      0
              641    642    659   -662    665   -672      0
              663    664    673   -675    678   -686      0
              676    677    687   -690    693   -703      0
              691    692    704   -707    710   -715      0
              708    709    716   -719    722   -735      0
              720    721    736   -739    742   -746      0
              740    741    747   -750    753   -760      0
              751    752    761   -764    767   -777      0
              765    766    778   -781    784   -801      0
              782    783    802   -805    808   -816      0
              806    807    817   -820    823   -840      0
              821    822    841   -844    847   -859      0
              845    846    860   -863    866   -878      0
              864    865    879   -882    885   -902      0
              883    884    903   -907      0
              908   -914      0
              915   -920    923   -937      0
              921    922    938   -941    944   -951      0
              942    943    952   -955    958   -962      0
              956    957    963   -966    969   -973      0
              967    968    974   -977    980   -988      0
              978    979    989   -992    995  -1003      0
              993    994   1004  -1007   1010  -1023      0
             1008   1009   1024  -1027   1030  -1033      0
             1028   1029   1034  -1037   1040  -1043      0
             1038   1039   1044  -1047   1050  -1055      0
             1048   1049   1056  -1059   1062  -1065      0
             1060   1061   1066  -1069   1072  -1084      0
             1070   1071   1085  -1088   1091  -1103      0
             1089   1090   1104  -1107   1110  -1119      0
             1108   1109   1120  -1123   1126  -1139      0
             1124   1125   1140  -1143   1146  -1151      0
             1144   1145   1152  -1155   1158  -1165      0
             1156   1157   1166  -1169   1172  -1176      0
             1170   1171   1177  -1180   1183  -1193      0
             1181   1182   1194  -1197   1200  -1207      0
             1198   1199   1208  -1211   1214  -1227      0
             1212   1213   1228  -1231   1234  -1241      0
             1232   1233   1242  -1245   1248  -1256      0
             1246   1247   1257  -1260   1263  -1268      0
             1261   1262   1269  -1272   1275  -1280      0
             1273   1274   1281  -1284   1287  -1291      0
             1285   1286   1292  -1295   1298  -1306      0
             1296   1297   1307  -1310   1313  -1322      0
             1311   1312   1323  -1327      0
             1328  -1333   1336  -1351      0
             1334   1335   1352  -1355   1358  -1361      0
             1356   1357   1362  -1366      0
             1367  -1372   1375  -1385      0
             1373   1374   1386  -1389   1392  -1404      0
             1390   1391   1405  -1408   1411  -1421      0
             1409   1410   1422  -1425   1428  -1445      0
             1426   1427   1446  -1449   1452  -1469      0
             1450   1451   1470  -1473   1476  -1489      0
             1474   1475   1490  -1493   1496  -1509      0
             1494   1495   1510  -1513   1516  -1524      0
             1514   1515   1525  -1528   1531  -1535      0
             1529   1530   1536  -1539   1542  -1559      0
             1540   1541   1560  -1563   1566  -1583      0
             1564   1565   1584  -1587   1590  -1598      0
             1588   1589   1599  -1602   1605  -1613      0
             1603   1604   1614  -1617   1620  -1633      0
             1618   1619   1634  -1655      0
             1656  -1658      0
             1659  -1661      0
             1662  -1664      0
             1665  -1667      0
             1668  -1670      0
             1671  -1673      0
             1674  -1676      0
             1677  -1679      0
             1680  -1682      0
             1683  -1685      0
             1686  -1688      0
             1689  -1691      0
             1692  -1694      0
             1695  -1697      0
             1698  -1700      0
             1701  -1703      0
             1704  -1706      0
             1707  -1709      0
             1710  -1712      0
             1713  -1715      0
             1716  -1718      0
             1719  -1721      0
             1722  -1724      0
             1725  -1727      0
             1728  -1730      0
             1731  -1733      0
             1734  -1736      0
             1737  -1739      0
             1740  -1742      0
             1743  -1745      0
             1746  -1748      0
             1749  -1751      0
             1752  -1754      0
             1755  -1757      0
             1758  -1760      0
             1761  -1763      0
             1764  -1766      0
             1767  -1769      0
             1770  -1772      0
             1773  -1775      0
             1776  -1778      0
             1779  -1781      0
             1782  -1784      0
             1785  -1787      0
             1788  -1790      0
             1791  -1793      0
             1794  -1796      0
             1797  -1799      0
             1800  -1802      0
             1803  -1805      0
             1806  -1808      0
             1809  -1811      0
             1812  -1814      0
             1815  -1817      0
             1818  -1820      0
             1821  -1823      0
             1824  -1826      0
             1827  -1829      0
             1830  -1832      0
             1833  -1835      0
             1836  -1838      0
             1839  -1841      0
             1842  -1844      0
             1845  -1847      0
             1848  -1850      0
             1851  -1853      0
             1854  -1856      0
             1857  -1859      0
             1860  -1862      0
             1863  -1865      0
             1866  -1868      0
             1869  -1871      0
             1872  -1874      0
             1875  -1877      0
             1878  -1880      0
             1881  -1883      0
             1884  -1886      0
             1887  -1889      0
             1890  -1892      0
             1893  -1895      0
             1896  -1898      0
             1899  -1901      0
             1902  -1904      0
             1905  -1907      0
             1908  -1910      0
             1911  -1913      0
             1914  -1916      0
             1917  -1919      0
             1920  -1922      0
             1923  -1925      0
             1926  -1928      0
             1929  -1931      0
             1932  -1934      0
             1935  -1937      0
             1938  -1940      0
             1941  -1943      0
             1944  -1946      0
             1947  -1949      0
             1950  -1952      0
             1953  -1955      0
             1956  -1958      0
             1959  -1961      0
             1962  -1964      0
             1965  -1967      0
             1968  -1970      0
             1971  -1973      0
             1974  -1976      0
             1977  -1979      0
             1980  -1982      0
             1983  -1985      0
             1986  -1988      0
             1989  -2030      0
 $end
 $fmohyb
  6-31G        9   5
    1 0  -0.067724   0.300281   0.000000   0.000000   0.606750
          0.306535   0.000000   0.000000   0.309793
    0 1  -0.067730   0.300310   0.572037   0.000000  -0.202234
          0.306552   0.292061   0.000000  -0.103255
    0 1  -0.067730   0.300310  -0.286019  -0.495398  -0.202234
          0.306552  -0.146031  -0.252933  -0.103255
    0 1  -0.067730   0.300310  -0.286019   0.495398  -0.202234
          0.306552  -0.146031   0.252933  -0.103255
    0 1   1.011954  -0.016447   0.000000   0.000000   0.000000
         -0.059374   0.000000   0.000000  -0.000001
  MINI         5   5
    1 0  -0.109772   0.515046   0.000000   0.000000   0.864512
    0 1  -0.109775   0.515062   0.815062   0.000000  -0.288166
    0 1  -0.109775   0.515062  -0.407531  -0.705864  -0.288166
    0 1  -0.109775   0.515062  -0.407531   0.705864  -0.288166
    0 1   0.996474   0.015610   0.000000   0.000000   0.000000
 $end
 $fmobnd
      -5     7  6-31G       MINI      
     -22    24  6-31G       MINI      
     -33    35  6-31G       MINI      
     -45    47  6-31G       MINI      
     -64    66  6-31G       MINI      
     -78    80  6-31G       MINI      
     -98   100  6-31G       MINI      
    -109   111  6-31G       MINI      
    -124   126  6-31G       MINI      
    -143   145  6-31G       MINI      
    -162   164  6-31G       MINI      
    -181   183  6-31G       MINI      
    -198   200  6-31G       MINI      
    -213   215  6-31G       MINI      
    -230   232  6-31G       MINI      
    -245   247  6-31G       MINI      
    -256   258  6-31G       MINI      
    -273   275  6-31G       MINI      
    -285   287  6-31G       MINI      
    -295   297  6-31G       MINI      
    -305   307  6-31G       MINI      
    -328   330  6-31G       MINI      
    -343   345  6-31G       MINI      
    -363   365  6-31G       MINI      
    -382   384  6-31G       MINI      
    -396   398  6-31G       MINI      
    -411   413  6-31G       MINI      
    -427   429  6-31G       MINI      
    -440   442  6-31G       MINI      
    -455   457  6-31G       MINI      
    -479   481  6-31G       MINI      
    -498   500  6-31G       MINI      
    -514   516  6-31G       MINI      
    -525   528  6-31G       MINI      
    -532   534  6-31G       MINI      
    -553   555  6-31G       MINI      
    -577   579  6-31G       MINI      
    -601   603  6-31G       MINI      
    -620   622  6-31G       MINI      
    -639   641  6-31G       MINI      
    -661   663  6-31G       MINI      
    -674   676  6-31G       MINI      
    -689   691  6-31G       MINI      
    -706   708  6-31G       MINI      
    -718   720  6-31G       MINI      
    -738   740  6-31G       MINI      
    -749   751  6-31G       MINI      
    -763   765  6-31G       MINI      
    -780   782  6-31G       MINI      
    -804   806  6-31G       MINI      
    -819   821  6-31G       MINI      
    -843   845  6-31G       MINI      
    -862   864  6-31G       MINI      
    -881   883  6-31G       MINI      
    -905   908  6-31G       MINI      
    -912   915  6-31G       MINI      
    -919   921  6-31G       MINI      
    -940   942  6-31G       MINI      
    -954   956  6-31G       MINI      
    -965   967  6-31G       MINI      
    -976   978  6-31G       MINI      
    -991   993  6-31G       MINI      
   -1006  1008  6-31G       MINI      
   -1026  1028  6-31G       MINI      
   -1036  1038  6-31G       MINI      
   -1046  1048  6-31G       MINI      
   -1058  1060  6-31G       MINI      
   -1068  1070  6-31G       MINI      
   -1087  1089  6-31G       MINI      
   -1106  1108  6-31G       MINI      
   -1122  1124  6-31G       MINI      
   -1142  1144  6-31G       MINI      
   -1154  1156  6-31G       MINI      
   -1168  1170  6-31G       MINI      
   -1179  1181  6-31G       MINI      
   -1196  1198  6-31G       MINI      
   -1210  1212  6-31G       MINI      
   -1230  1232  6-31G       MINI      
   -1244  1246  6-31G       MINI      
   -1259  1261  6-31G       MINI      
   -1271  1273  6-31G       MINI      
   -1283  1285  6-31G       MINI      
   -1294  1296  6-31G       MINI      
   -1309  1311  6-31G       MINI      
   -1325  1328  6-31G       MINI      
   -1332  1334  6-31G       MINI      
   -1354  1356  6-31G       MINI      
   -1364  1367  6-31G       MINI      
   -1371  1373  6-31G       MINI      
   -1388  1390  6-31G       MINI      
   -1407  1409  6-31G       MINI      
   -1424  1426  6-31G       MINI      
   -1448  1450  6-31G       MINI      
   -1472  1474  6-31G       MINI      
   -1492  1494  6-31G       MINI      
   -1512  1514  6-31G       MINI      
   -1527  1529  6-31G       MINI      
   -1538  1540  6-31G       MINI      
   -1562  1564  6-31G       MINI      
   -1586  1588  6-31G       MINI      
   -1601  1603  6-31G       MINI      
   -1616  1618  6-31G       MINI      
 $end
 $data
 Structure from PDB
 C1
 s.1-1    16
       n31 6

 o.1-1     8
       n31 6

 h.1-1     1
       n31 6

 c.1-1     6
       n31 6

 n.1-1     7
       n31 6

 $end
 $fmoxyz
      1      N          -27.89900000        9.27000000      -11.11600000
      2      H          -27.35980000       10.25570000      -11.52150000
      3      H          -27.20780000        8.45060000      -10.57860000
      4      H          -27.99740000        8.67740000      -12.16600000
      5      C          -29.25100000        9.65700000      -10.72100000
      6      H          -29.89270000        9.88440000      -11.70110000
      7      C          -29.22700000       10.85900000       -9.78000000
      8      O          -29.87000000       11.87500000      -10.05600000
      9      C          -29.98200000        8.47900000      -10.05600000
     10      H          -29.54940000        7.96320000       -9.06810000
     11      H          -30.11170000        7.63900000      -10.92080000
     12      C          -31.41100000        8.76900000       -9.69500000
     13      N          -32.37400000        9.06200000      -10.63900000
     14      H          -32.50610000        9.07530000      -11.82270000
     15      C          -32.04200000        8.79700000       -8.49600000
     16      H          -31.90170000        8.55230000       -7.34210000
     17      C          -33.53300000        9.26700000      -10.03700000
     18      H          -34.61040000        9.59990000      -10.41120000
     19      N          -33.35900000        9.11000000       -8.73600000
     20      N          -28.47900000       10.73400000       -8.67400000
     21      H          -28.25660000        9.62250000       -8.29570000
     22      C          -28.40900000       11.80400000       -7.67900000
     23      H          -29.42040000       11.48000000       -7.12780000
     24      C          -27.96400000       13.12600000       -8.28600000
     25      O          -28.33900000       14.19900000       -7.79500000
     26      C          -27.45900000       11.41700000       -6.54400000
     27      H          -26.25280000       11.44310000       -6.60310000
     28      H          -27.52930000       10.26560000       -6.16300000
     29      O          -27.84100000       12.05900000       -5.33600000
     30      H          -27.05470000       12.77470000       -4.80860000
     31      N          -27.14800000       13.07300000       -9.33900000
     32      H          -26.12350000       12.93500000       -8.73080000
     33      C          -26.78400000       14.29700000      -10.03900000
     34      H          -26.36320000       15.13600000       -9.30540000
     35      C          -28.02400000       14.98400000      -10.60200000
     36      O          -28.23700000       16.18500000      -10.38300000
     37      C          -25.77200000       13.99100000      -11.14600000
     38      H          -25.60700000       14.59350000      -12.16510000
     39      H          -26.09590000       12.89860000      -11.50910000
     40      C          -24.33300000       14.23000000      -10.70600000
     41      O          -24.09900000       14.38300000       -9.48600000
     42      O          -23.44000000       14.26700000      -11.58000000
     43      N          -28.87900000       14.22900000      -11.29700000
     44      H          -28.64550000       13.12810000      -11.68300000
     45      C          -30.02700000       14.84900000      -11.94200000
     46      H          -29.80940000       15.94660000      -12.34990000
     47      C          -31.15400000       15.18400000      -10.97000000
     48      O          -31.95900000       16.07300000      -11.26700000
     49      C          -30.54500000       13.95400000      -13.06600000
     50      H          -30.81980000       12.83210000      -12.72560000
     51      H          -31.56840000       14.31210000      -13.55950000
     52      C          -29.57300000       13.81800000      -14.24600000
     53      H          -28.75360000       12.96190000      -14.06650000
     54      C          -30.25800000       13.21400000      -15.46200000
     55      H          -31.18010000       12.45910000      -15.29540000
     56      H          -30.76230000       13.85600000      -16.33750000
     57      H          -29.50460000       12.51100000      -16.08020000
     58      C          -28.92600000       15.15300000      -14.60200000
     59      H          -27.99750000       15.48860000      -13.93020000
     60      H          -29.64140000       16.07810000      -14.85030000
     61      H          -28.39590000       14.96600000      -15.66180000
     62      N          -31.23400000       14.51900000       -9.81700000
     63      H          -30.61550000       13.57530000       -9.47740000
     64      C          -32.26900000       14.90000000       -8.85900000
     65      H          -33.34470000       14.70100000       -9.35480000
     66      C          -32.01100000       16.29600000       -8.29200000
     67      O          -32.94700000       17.08800000       -8.13900000
     68      C          -32.40100000       13.85400000       -7.74300000
     69      H          -32.83140000       12.79160000       -8.08340000
     70      O          -33.54900000       14.16600000       -6.94000000
     71      H          -33.41790000       15.13890000       -6.26950000
     72      C          -31.17800000       13.81500000       -6.84600000
     73      H          -31.47470000       12.80530000       -6.25220000
     74      H          -31.13000000       14.54000000       -5.88870000
     75      H          -30.01020000       13.60270000       -6.87550000
     76      N          -30.74900000       16.64200000       -8.02200000
     77      H          -29.83600000       15.91500000       -7.83340000
     78      C          -30.48000000       17.99200000       -7.54600000
     79      H          -31.09800000       18.01120000       -6.53020000
     80      C          -30.80100000       19.03100000       -8.61200000
     81      O          -31.28000000       20.12600000       -8.29000000
     82      C          -29.03400000       18.13900000       -7.09200000
     83      H          -28.85320000       17.29910000       -6.25560000
     84      H          -28.16080000       17.99340000       -7.89120000
     85      C          -28.76300000       19.45800000       -6.44400000
     86      C          -29.11900000       19.67400000       -5.11500000
     87      H          -29.70880000       18.86780000       -4.47060000
     88      C          -28.20300000       20.50300000       -7.17100000
     89      H          -27.91780000       20.33260000       -8.31020000
     90      C          -28.88900000       20.89600000       -4.50100000
     91      H          -29.09980000       20.75370000       -3.33320000
     92      C          -27.97200000       21.73100000       -6.57100000
     93      H          -27.08420000       22.19530000       -7.20130000
     94      C          -28.31700000       21.93000000       -5.23100000
     95      H          -27.89250000       22.84980000       -4.63120000
     96      N          -30.52600000       18.71600000       -9.88200000
     97      H          -29.54410000       18.10200000      -10.12750000
     98      C          -30.88800000       19.62700000      -10.96500000
     99      H          -30.07410000       20.49480000      -11.05060000
    100      C          -32.37500000       19.94800000      -10.93300000
    101      O          -32.77800000       21.10100000      -11.12500000
    102      C          -30.50200000       19.02500000      -12.31800000
    103      H          -31.41190000       18.26170000      -12.45260000
    104      H          -30.27300000       19.44060000      -13.41400000
    105      S          -28.71200000       18.85000000      -12.59100000
    106      H          -27.67240000       19.11400000      -12.10990000
    107      N          -33.20700000       18.94100000      -10.68000000
    108      H          -32.89360000       17.81610000      -10.48250000
    109      C          -34.63700000       19.19000000      -10.55900000
    110      H          -35.09810000       19.75030000      -11.50350000
    111      C          -34.93900000       20.09400000       -9.36600000
    112      O          -35.74300000       21.02600000       -9.47400000
    113      C          -35.37500000       17.85700000      -10.44200000
    114      H          -35.24590000       17.17060000      -11.41380000
    115      H          -35.15530000       17.11840000       -9.52490000
    116      C          -36.83200000       18.00400000      -10.10100000
    117      H          -37.03900000       18.34040000       -8.97160000
    118      H          -37.52780000       17.01560000      -10.07900000
    119      C          -37.59900000       18.77300000      -11.15100000
    120      O          -37.44100000       18.45800000      -12.36000000
    121      O          -38.36300000       19.68900000      -10.76300000
    122      N          -34.29900000       19.83600000       -8.22300000
    123      H          -33.69730000       18.83670000       -8.07880000
    124      C          -34.52900000       20.65400000       -7.03000000
    125      H          -35.66950000       20.42990000       -6.77610000
    126      C          -34.18600000       22.11300000       -7.31100000
    127      O          -34.97700000       23.02400000       -7.03500000
    128      C          -33.72200000       20.10500000       -5.83800000
    129      H          -32.54620000       19.91360000       -5.90390000
    130      C          -34.17900000       18.68900000       -5.48400000
    131      H          -35.30060000       18.77360000       -5.05540000
    132      H          -34.30240000       17.73910000       -6.19700000
    133      C          -33.85700000       21.02200000       -4.62400000
    134      H          -34.48550000       20.49860000       -3.74510000
    135      H          -32.73530000       21.12990000       -4.21890000
    136      H          -34.31970000       22.09780000       -4.83100000
    137      C          -33.50400000       18.10600000       -4.25700000
    138      H          -33.22460000       18.57150000       -3.18330000
    139      H          -32.52160000       17.45480000       -4.46620000
    140      H          -34.25380000       17.24200000       -3.87400000
    141      N          -33.01500000       22.35500000       -7.89500000
    142      H          -32.19910000       21.69130000       -7.34200000
    143      C          -32.56500000       23.73100000       -8.06300000
    144      H          -32.72100000       24.17310000       -6.96560000
    145      C          -33.34600000       24.43100000       -9.17700000
    146      O          -33.66000000       25.62400000       -9.07300000
    147      C          -31.03900000       23.75900000       -8.28800000
    148      H          -30.55790000       23.22510000       -7.33580000
    149      C          -30.50500000       25.18900000       -8.21000000
    150      H          -30.80020000       25.92140000       -9.10820000
    151      H          -30.85490000       25.64410000       -7.16020000
    152      C          -30.64900000       23.10700000       -9.59600000
    153      H          -30.97990000       23.80040000      -10.50770000
    154      H          -30.98970000       21.96900000       -9.66670000
    155      H          -29.46510000       23.05950000       -9.73170000
    156      C          -28.99700000       25.23100000       -8.10000000
    157      H          -28.74000000       26.25310000       -7.53990000