 $contrl runtyp=energy nprint=-5 maxit=200 $end
 $system mwords=218 memddi=0 $end
 $gddi ngroup=1 $end
 $scf dirscf=.t. npunch=0 $end
 $fmoprp
   ngrfmo(1)=1,1,0,0,0,  0,0,0,0,0
   ipieda=1
   naodir=220
   nprint=9
   maxit=100
 $end
 $fmo
      nlayer=1
      mplevl(1)=2
      nfrag=34
      icharg(1)=-1,-1,-1,-1,-1,-1,-1,-1,-1,-1,
                -1,-1,-1,-1,-1,-1,-1,-1,-1,-1,
                -1,-1,-1,-1,-1,-1,-1,-1,-1,-1,
                -1,-1, 0, 0
      frgnam(1)= DC001, DG002, DA003, DT004, DC005,
                 DG006, DG007, DG008, DT009, DG010,
                 DT011, DG012, DG013, DG014, DT015,
                 DG016, DG017, DC018, DG019, DT020,
                 DA021, DA022, DA023, DG024, DG025,
                 DG026, DA027, DG028, DC029, DA030,
                 DT031, DC032, DG033, UNK001
      indat(1)= 0
                1    -33     51     52      0
               34    -50     53    -66     83     84      0
               67    -82     85    -98    114    115      0
               99   -113    116   -130    145    146      0
              131   -144    147   -160    178    179      0
              161   -177    180   -193    211    212      0
              194   -210    213   -226    244    245      0
              227   -243    246   -259    275    276      0
              260   -274    277   -291    309    310      0
              292   -308    311   -324    340    341      0
              325   -339    342   -356    374    375      0
              357   -373    376   -389    407    408      0
              390   -406    409   -422    440    441      0
              423   -439    442   -455    471    472      0
              456   -470    473   -487    505    506      0
              488   -504    507   -520    538    539      0
              521   -537    540   -553    568    569      0
              554   -567    570   -583    601    602      0
              584   -600    603   -616    632    633      0
              617   -631    634   -648    665    666      0
              649   -664    667   -680    697    698      0
              681   -696    699   -712    729    730      0
              713   -728    731   -744    762    763      0
              745   -761    764   -777    795    796      0
              778   -794    797   -810    828    829      0
              811   -827    830   -843    860    861      0
              844   -859    862   -875    893    894      0
              876   -892    895   -908    923    924      0
              909   -922    925   -938    955    956      0
              939   -954    957   -970    986    987      0
              971   -985    988  -1002   1017   1018      0
             1003  -1016   1019  -1032   1050   1051      0
             1033  -1049   1052  -1061      0
             1062  -1107      0
 $end
 $fmohyb
  6-31G        9   5
    1 0  -0.067724   0.300281   0.000000   0.000000   0.606750
          0.306535   0.000000   0.000000   0.309793
    0 1  -0.067730   0.300310   0.572037   0.000000  -0.202234
          0.306552   0.292061   0.000000  -0.103255
    0 1  -0.067730   0.300310  -0.286019  -0.495398  -0.202234
          0.306552  -0.146031  -0.252933  -0.103255
    0 1  -0.067730   0.300310  -0.286019   0.495398  -0.202234
          0.306552  -0.146031   0.252933  -0.103255
    0 1   1.011954  -0.016447   0.000000   0.000000   0.000000
         -0.059374   0.000000   0.000000  -0.000001
  MINI         5   5
    1 0  -0.109772   0.515046   0.000000   0.000000   0.864512
    0 1  -0.109775   0.515062   0.815062   0.000000  -0.288166
    0 1  -0.109775   0.515062  -0.407531  -0.705864  -0.288166
    0 1  -0.109775   0.515062  -0.407531   0.705864  -0.288166
    0 1   0.996474   0.015610   0.000000   0.000000   0.000000
 $end
 $fmobnd
     -33    34  6-31G       MINI      
     -66    67  6-31G       MINI      
     -98    99  6-31G       MINI      
    -130   131  6-31G       MINI      
    -160   161  6-31G       MINI      
    -193   194  6-31G       MINI      
    -226   227  6-31G       MINI      
    -259   260  6-31G       MINI      
    -291   292  6-31G       MINI      
    -324   325  6-31G       MINI      
    -356   357  6-31G       MINI      
    -389   390  6-31G       MINI      
    -422   423  6-31G       MINI      
    -455   456  6-31G       MINI      
    -487   488  6-31G       MINI      
    -520   521  6-31G       MINI      
    -553   554  6-31G       MINI      
    -583   584  6-31G       MINI      
    -616   617  6-31G       MINI      
    -648   649  6-31G       MINI      
    -680   681  6-31G       MINI      
    -712   713  6-31G       MINI      
    -744   745  6-31G       MINI      
    -777   778  6-31G       MINI      
    -810   811  6-31G       MINI      
    -843   844  6-31G       MINI      
    -875   876  6-31G       MINI      
    -908   909  6-31G       MINI      
    -938   939  6-31G       MINI      
    -970   971  6-31G       MINI      
   -1002  1003  6-31G       MINI      
   -1032  1033  6-31G       MINI      
 $end
 $data
 Structure from PDB
 C1
 c.1-1     6
       n31 6

 o.1-1     8
       n31 6

 cl.1-1    17
       n31 6

 n.1-1     7
       n31 6

 p.1-1    15
       n31 6

 h.1-1     1
       n31 6

 $end
 $fmoxyz
      1      O           33.08400000       12.58300000       21.46700000
      2      C           32.46800000       11.83300000       20.41600000
      3      C           31.69100000       12.72600000       19.47700000
      4      O           31.95100000       12.31300000       18.11600000
      5      C           30.17400000       12.67300000       19.65400000
      6      O           29.54600000       13.95400000       19.54800000
      7      C           29.70300000       11.74600000       18.55200000
      8      C           30.75200000       11.91200000       17.46600000
      9      N           31.06000000       10.69100000       16.70600000
     10      C           31.07500000       10.75200000       15.31000000
     11      O           30.82800000       11.83400000       14.75600000
     12      N           31.35700000        9.63300000       14.60200000
     13      C           31.61600000        8.49000000       15.23900000
     14      N           31.88900000        7.41100000       14.50000000
     15      C           31.60800000        8.39800000       16.66200000
     16      C           31.32700000        9.51400000       17.35000000
     17      H           31.78900000       11.09800000       20.84800000
     18      H           33.23600000       11.31100000       19.84700000
     19      H           33.71300000       13.18100000       21.06000000
     20      H           32.02800000       13.78500000       19.65800000
     21      H           29.90100000       12.20800000       20.64300000
     22      H           29.64400000       10.71700000       18.90900000
     23      H           28.70700000       12.03100000       18.20900000
     24      H           30.46100000       12.72100000       16.73800000
     25      H           31.89400000        7.47700000       13.49300000
     26      H           32.09000000        6.52800000       14.95000000
     27      H           31.82200000        7.45900000       17.17200000
     28      H           31.31200000        9.48000000       18.43900000
     29      P           27.97300000       14.09700000       19.84200000
     30      O           27.75400000       15.42500000       20.46600000
     31      O           27.51700000       12.87100000       20.54500000
     32      O           27.31100000       14.11500000       18.39300000
     33      C           27.56600000       15.18400000       17.48300000
     34      C           26.77100000       14.98800000       16.21400000
     35      O           27.30700000       13.83900000       15.50400000
     36      C           25.28800000       14.70200000       16.43100000
     37      O           24.51700000       15.43500000       15.47300000
     38      C           25.14100000       13.20600000       16.19700000
     39      C           26.27100000       12.90400000       15.22800000
     40      N           26.83700000       11.56400000       15.35700000
     41      C           27.12500000       10.89600000       16.52100000
     42      N           27.62700000        9.70800000       16.32500000
     43      C           27.67300000        9.58200000       14.94300000
     44      C           28.12400000        8.50600000       14.13400000
     45      O           28.59000000        7.41800000       14.49200000
     46      N           27.99700000        8.78900000       12.77500000
     47      C           27.49600000        9.96700000       12.27000000
     48      N           27.44900000       10.06000000       10.93100000
     49      N           27.07200000       10.97700000       13.01300000
     50      C           27.18900000       10.71700000       14.33000000
     51      H           28.62900000       15.21200000       17.23800000
     52      H           27.28200000       16.13300000       17.94000000
     53      H           26.86000000       15.92800000       15.60100000
     54      H           24.91400000       14.93200000       17.46800000
     55      H           25.28400000       12.63400000       17.11400000
     56      H           24.15600000       12.95200000       15.80300000
     57      H           25.94200000       13.05100000       14.16100000
     58      H           26.95200000       11.31300000       17.50400000
     59      H           28.30900000        8.04300000       12.04700000
     60      H           27.77300000        9.29100000       10.36100000
     61      H           27.09400000       10.89800000       10.49600000
     62      P           22.91500000       15.29900000       15.46200000
     63      O           22.35800000       16.64300000       15.17000000
     64      O           22.50100000       14.58600000       16.69700000
     65      O           22.61400000       14.35400000       14.21400000
     66      C           23.16300000       14.64200000       12.92900000
     67      C           22.81800000       13.54000000       11.95500000
     68      O           23.65200000       12.37200000       12.23200000
     69      C           21.37500000       13.04500000       12.03100000
     70      O           20.85400000       12.84900000       10.71400000
     71      C           21.46500000       11.72500000       12.78300000
     72      C           22.83000000       11.21700000       12.34400000
     73      N           23.47600000       10.30000000       13.28200000
     74      C           23.61500000       10.44700000       14.64100000
     75      N           24.24500000        9.45200000       15.21900000
     76      C           24.53900000        8.59100000       14.17000000
     77      C           25.19800000        7.35000000       14.12200000
     78      N           25.70100000        6.73600000       15.19600000
     79      N           25.32400000        6.75200000       12.91600000
     80      C           24.82000000        7.36800000       11.83900000
     81      N           24.18000000        8.53300000       11.75800000
     82      C           24.07200000        9.10000000       12.97200000
     83      H           24.24700000       14.72600000       13.00300000
     84      H           22.75700000       15.58400000       12.55900000
     85      H           22.99600000       13.94100000       10.91800000
     86      H           20.68600000       13.72800000       12.60300000
     87      H           21.37600000       11.87200000       13.85900000
     88      H           20.66700000       11.04500000       12.47900000
     89      H           22.78400000       10.72100000       11.33400000
     90      H           23.24400000       11.30400000       15.18300000
     91      H           26.16300000        5.84400000       15.09800000
     92      H           25.61600000        7.16400000       16.10700000
     93      H           24.91800000        6.89600000       10.86400000
     94      P           19.33200000       12.36800000       10.52000000
     95      O           18.82600000       12.98700000        9.26900000
     96      O           18.60700000       12.59300000       11.79600000
     97      O           19.45200000       10.79700000       10.28300000
     98      C           20.04500000       10.27800000        9.09300000
     99      C           19.91400000        8.77400000        9.05700000
    100      O           20.76100000        8.20500000       10.08700000
    101      C           18.50600000        8.24900000        9.33300000
    102      O           18.13600000        7.16900000        8.46800000
    103      C           18.58300000        7.76300000       10.76700000
    104      C           20.00800000        7.23900000       10.81000000
    105      N           20.59900000        7.11900000       12.15500000
    106      C           21.39400000        6.02700000       12.41900000
    107      O           21.63200000        5.16200000       11.59400000
    108      N           21.90500000        5.98700000       13.69100000
    109      C           21.70400000        6.90900000       14.70000000
    110      O           22.22900000        6.73900000       15.79700000
    111      C           20.85800000        8.02800000       14.35400000
    112      C           20.58400000        9.07500000       15.38600000
    113      C           20.35100000        8.08100000       13.11200000
    114      H           21.10100000       10.54500000        9.06400000
    115      H           19.54700000       10.70100000        8.22000000
    116      H           20.22200000        8.42700000        8.03100000
    117      H           17.72600000        9.06000000        9.28000000
    118      H           18.39600000        8.57600000       11.46900000
    119      H           17.84700000        6.98300000       10.96300000
    120      H           20.11400000        6.24800000       10.28500000
    121      H           22.49400000        5.19600000       13.91400000
    122      H           19.74000000        9.70500000       15.05900000
    123      H           21.47900000        9.70500000       15.52000000
    124      H           20.32900000        8.59100000       16.34500000
    125      H           19.71200000        8.92400000       12.84800000
    126      P           16.59100000        6.95400000        8.07900000
    127      O           16.55500000        6.18200000        6.81100000
    128      O           15.90200000        8.26600000        8.15900000
    129      O           16.02800000        6.02200000        9.24100000
    130      C           14.65200000        5.64100000        9.27300000
    131      C           14.33100000        4.95400000       10.57900000
    132      O           14.90100000        3.62400000       10.55700000
    133      C           14.88500000        5.64800000       11.82000000
    134      O           13.91900000        5.60500000       12.87500000
    135      C           16.11300000        4.83700000       12.18300000
    136      C           15.78900000        3.44800000       11.65500000
    137      N           16.95800000        2.69600000       11.17100000
    138      C           17.13500000        1.37700000       11.59700000
    139      O           16.30100000        0.88000000       12.37000000
    140      N           18.20600000        0.67700000       11.15900000
    141      C           19.08200000        1.25000000       10.32700000
    142      N           20.12500000        0.52200000        9.92000000
    143      C           18.92600000        2.59300000        9.87800000
    144      C           17.86000000        3.27200000       10.32100000
    145      H           14.44200000        4.95900000        8.44900000
    146      H           14.02600000        6.52700000        9.17100000
    147      H           13.20900000        4.91500000       10.67100000
    148      H           15.20600000        6.71400000       11.65400000
    149      H           17.00600000        5.24700000       11.71200000
    150      H           16.28000000        4.83900000       13.26100000
    151      H           15.26300000        2.82900000       12.43500000
    152      H           20.23300000       -0.43000000       10.23900000
    153      H           20.80500000        0.92500000        9.29000000
    154      H           19.64600000        3.05100000        9.19800000
    155      H           17.71100000        4.30400000        9.99700000
    156      P           12.87800000        6.81700000       13.05100000
    157      O           13.62000000        8.08000000       12.80400000
    158      O           12.15800000        6.63000000       14.33600000
    159      O           11.84000000        6.61200000       11.86100000
    160      C           10.83100000        5.60500000       11.93200000
    161      C           10.14600000        5.45800000       10.59500000
    162      O           11.05500000        4.80600000        9.68400000
    163      C            8.87400000        4.60800000       10.61700000
    164      O            7.91500000        5.23900000        9.76100000
    165      C            9.26800000        3.25700000       10.02500000
    166      C           10.65300000        3.46600000        9.44100000
    167      N           11.64300000        2.56400000       10.02400000
    168      C           11.79600000        2.25100000       11.35300000
    169      N           12.76700000        1.41000000       11.57500000
    170      C           13.28900000        1.15000000       10.31500000
    171      C           14.36200000        0.30800000        9.92100000
    172      O           15.08600000       -0.39800000       10.63300000
    173      N           14.56300000        0.33400000        8.54200000
    174      C           13.81600000        1.08200000        7.66100000
    175      N           14.15200000        0.97700000        6.36700000
    176      N           12.81300000        1.86900000        8.01600000
    177      C           12.60700000        1.85600000        9.34800000
    178      H           10.09000000        5.88100000       12.68300000
    179      H           11.28200000        4.65100000       12.20900000
    180      H            9.87200000        6.48900000       10.23300000
    181      H            8.42200000        4.42700000       11.63300000
    182      H            9.31100000        2.48700000       10.79400000
    183      H            8.54400000        2.93400000        9.27800000
    184      H           10.63400000        3.30300000        8.32700000
    185      H           11.17500000        2.66200000       12.13500000
    186      H           15.35800000       -0.27000000        8.11100000
    187      H           14.91800000        0.37700000        6.09100000
    188      H           13.64300000        1.49800000        5.66900000
    189      P            6.45100000        4.59600000        9.59400000
    190      O            5.51800000        5.69800000        9.25100000
    191      O            6.17800000        3.74400000       10.78000000
    192      O            6.59000000        3.64800000        8.31900000
    193      C            6.83700000        4.19200000        7.02300000
    194      C            7.10500000        3.08200000        6.03400000
    195      O            8.38300000        2.43800000        6.29200000
    196      C            6.08500000        1.94200000        6.06100000
    197      O            5.27600000        2.02300000        4.88200000
    198      C            6.93100000        0.66400000        6.03500000
    199      C            8.30600000        1.17700000        5.64500000
    200      N            9.42000000        0.34300000        6.08800000
    201      C           10.42800000       -0.17100000        5.31000000
    202      N           11.28800000       -0.88400000        5.98200000
    203      C           10.81700000       -0.84100000        7.29000000
    204      C           11.33400000       -1.43300000        8.47200000
    205      O           12.34400000       -2.13600000        8.60100000
    206      N           10.55000000       -1.13900000        9.58600000
    207      C            9.41000000       -0.37000000        9.55400000
    208      N            8.78400000       -0.19400000       10.72700000
    209      N            8.91800000        0.18700000        8.45700000
    210      C            9.66600000       -0.08800000        7.37100000
    211      H            7.70400000        4.85200000        7.06200000
    212      H            5.97000000        4.76400000        6.69300000
    213      H            7.06900000        3.56000000        5.01500000
    214      H            5.42200000        1.90500000        6.97100000
    215      H            6.97700000        0.18300000        7.01300000
    216      H            6.53700000       -0.06500000        5.32800000
    217      H            8.40800000        1.34600000        4.53600000
    218      H           10.50300000        0.00000000        4.24600000
    219      H           10.84000000       -1.53400000       10.55700000
    220      H            9.15500000       -0.61800000       11.56500000
    221      H            7.94100000        0.36000000       10.77100000
    222      P            4.09000000        0.96200000        4.65700000
    223      O            3.08600000        1.59900000        3.76800000
    224      O            3.67200000        0.44100000        5.98400000
    225      O            4.78300000       -0.22400000        3.84900000
    226      C            5.53100000        0.03400000        2.66000000
    227      C            6.07000000       -1.25900000        2.09400000
    228      O            7.13500000       -1.75700000        2.96400000
    229      C            5.04400000       -2.38900000        1.99300000
    230      O            5.20200000       -3.05100000        0.73400000
    231      C            5.40400000       -3.32500000        3.13500000
    232      C            6.90200000       -3.12300000        3.27100000
    233      N            7.42300000       -3.39100000        4.60900000
    234      C            6.90200000       -2.95900000        5.80400000
    235      N            7.58400000       -3.36100000        6.84000000
    236      C            8.62200000       -4.10800000        6.29700000
    237      C            9.68800000       -4.79700000        6.93000000
    238      O            9.93300000       -4.88800000        8.14000000
    239      N           10.52200000       -5.42700000        6.00700000
    240      C           10.34100000       -5.39000000        4.64500000
    241      N           11.24500000       -6.05600000        3.91100000
    242      N            9.35100000       -4.75100000        4.04000000
    243      C            8.53600000       -4.13600000        4.92200000
    244      H            6.36500000        0.69800000        2.88900000
    245      H            4.88800000        0.50900000        1.91900000
    246      H            6.45200000       -1.04000000        1.05800000
    247      H            3.96900000       -2.07900000        2.12000000
    248      H            4.90900000       -3.04400000        4.06600000
    249      H            5.13000000       -4.35600000        2.91700000
    250      H            7.47500000       -3.75100000        2.53200000
    251      H            6.01500000       -2.34700000        5.87700000
    252      H           11.38000000       -5.99100000        6.36700000
    253      H           12.00200000       -6.54600000        4.36600000
    254      H           11.17000000       -6.06800000        2.90400000
    255      P            4.02800000       -3.99800000        0.17500000
    256      O            3.09900000       -3.14000000       -0.60300000
    257      O            3.50600000       -4.81100000        1.30400000
    258      O            4.77200000       -4.97300000       -0.84200000
    259      C            5.84700000       -5.80700000       -0.40800000
    260      C            6.38800000       -6.60600000       -1.57000000
    261      O            6.93300000       -5.69200000       -2.55900000
    262      C            7.53700000       -7.54900000       -1.21600000
    263      O            7.55900000       -8.68900000       -2.08100000
    264      C            8.73800000       -6.65800000       -1.47200000
    265      C            8.30500000       -5.99600000       -2.76800000
    266      N            9.00000000       -4.74000000       -3.10100000
    267      C            9.14000000       -4.40900000       -4.43000000
    268      O            8.71600000       -5.10600000       -5.33900000
    269      N            9.79800000       -3.22700000       -4.65800000
    270      C           10.31700000       -2.36600000       -3.71200000
    271      O           10.88300000       -1.33600000       -4.06800000
    272      C           10.13600000       -2.77700000       -2.33800000
    273      C           10.66700000       -1.90300000       -1.24500000
    274      C            9.49400000       -3.93100000       -2.09900000
    275      H            5.49200000       -6.49100000        0.36300000
    276      H            6.64500000       -5.18900000        0.00300000
    277      H            5.54500000       -7.22400000       -1.99000000
    278      H            7.57900000       -7.89400000       -0.14500000
    279      H            8.89600000       -5.93100000       -0.67500000
    280      H            9.66300000       -7.22600000       -1.58800000
    281      H            8.37900000       -6.69200000       -3.65100000
    282      H            9.91500000       -2.95700000       -5.62500000
    283      H            9.85600000       -1.26500000       -0.85500000
    284      H           11.47500000       -1.26500000       -1.64100000
    285      H           11.06400000       -2.53100000       -0.42900000
    286      H            9.35400000       -4.24300000       -1.06300000
    287      P            7.33700000      -10.16000000       -1.47100000
    288      O            7.53900000      -11.13300000       -2.57500000
    289      O            6.05900000      -10.16200000       -0.71500000
    290      O            8.53400000      -10.33200000       -0.43500000
    291      C            9.89300000      -10.22600000       -0.85900000
    292      C           10.82300000      -10.44300000        0.31200000
    293      O           10.55800000       -9.43400000        1.34200000
    294      C           10.67000000      -11.79400000        1.00800000
    295      O           11.95900000      -12.30000000        1.37500000
    296      C            9.84100000      -11.49200000        2.24200000
    297      C           10.21400000      -10.05700000        2.57100000
    298      N            9.13600000       -9.29100000        3.19100000
    299      C            8.17600000       -8.54600000        2.55300000
    300      N            7.34000000       -7.96900000        3.37200000
    301      C            7.77600000       -8.35800000        4.63300000
    302      C            7.26400000       -8.04300000        5.91900000
    303      O            6.28800000       -7.33900000        6.20700000
    304      N            8.00600000       -8.64400000        6.93500000
    305      C            9.10400000       -9.44700000        6.72500000
    306      N            9.69200000       -9.94100000        7.82600000
    307      N            9.59000000       -9.74800000        5.53200000
    308      C            8.88300000       -9.17300000        4.53800000
    309      H           10.07000000       -9.23400000       -1.27600000
    310      H           10.09800000      -10.97700000       -1.62200000
    311      H           11.87600000      -10.36900000       -0.08100000
    312      H           10.12500000      -12.57000000        0.40100000
    313      H            8.77200000      -11.54300000        2.03000000
    314      H           10.04800000      -12.19300000        3.05200000
    315      H           11.11300000      -10.01500000        3.24800000
    316      H            8.11700000       -8.44800000        1.47900000
    317      H            7.71600000       -8.48100000        7.97100000
    318      H            9.32300000       -9.71600000        8.73900000
    319      H           10.50300000      -10.53700000        7.74200000
    320      P           12.09000000      -13.78500000        1.97500000
    321      O           13.37600000      -14.34900000        1.48600000
    322      O           10.82400000      -14.51100000        1.71000000
    323      O           12.21900000      -13.55700000        3.54600000
    324      C           13.23800000      -12.71500000        4.08500000
    325      C           13.28900000      -12.85700000        5.58800000
    326      O           12.07700000      -12.31300000        6.15900000
    327      C           13.37500000      -14.29700000        6.09200000
    328      O           14.35800000      -14.42800000        7.12400000
    329      C           11.98500000      -14.64100000        6.61300000
    330      C           11.35200000      -13.28800000        6.89600000
    331      N            9.93500000      -13.20400000        6.50000000
    332      C            9.01700000      -12.82600000        7.45300000
    333      O            9.32200000      -12.56000000        8.60400000
    334      N            7.72000000      -12.77000000        7.00800000
    335      C            7.26300000      -13.05000000        5.73500000
    336      O            6.06400000      -12.95800000        5.48100000
    337      C            8.28100000      -13.44000000        4.78600000
    338      C            7.87600000      -13.76000000        3.38200000
    339      C            9.55400000      -13.49800000        5.20600000