 $contrl runtyp=energy nprint=-5 maxit=200 $end
 $system mwords=218 memddi=0 $end
 $gddi ngroup=1 $end
 $scf dirscf=.t. npunch=0 $end
 $fmoprp
   ngrfmo(1)=1,1,0,0,0,  0,0,0,0,0
   ipieda=1
   naodir=220
   nprint=9
   maxit=100
 $end
 $fmo
      nlayer=1
      mplevl(1)=2
      nfrag=27
      icharg(1)=-1,-1,-1,-1,-1,-1,-1,-1,-1,-1,
                -1,-1, 0,-1,-1,-1,-1,-1,-1,-1,
                -1,-1,-1,-1,-1, 0, 0
      frgnam(1)= G001, A002, C003, A004, G005,
                 C006, U007, G008, C009, U010,
                 G011, U012, C013, G001, A002,
                 C003, A004, G005, C006, U007,
                 G008, C009, U010, G011, U012,
                 C013, UNK001
      indat(1)= 0
                1    -37     55     56      0
               38    -54     57    -70     86     87      0
               71    -85     88   -101    119    120      0
              102   -118    121   -134    153    154      0
              135   -152    155   -168    184    185      0
              169   -183    186   -199    215    216      0
              200   -214    217   -229    248    249      0
              230   -247    250   -263    279    280      0
              264   -278    281   -294    310    311      0
              295   -309    312   -324    343    344      0
              325   -342    345   -358    374    375      0
              359   -373    376   -388    404    405      0
              389   -403    406   -415      0
              416   -452    470    471      0
              453   -469    472   -485    501    502      0
              486   -500    503   -516    534    535      0
              517   -533    536   -549    568    569      0
              550   -567    570   -583    599    600      0
              584   -598    601   -614    630    631      0
              615   -629    632   -644    663    664      0
              645   -662    665   -678    694    695      0
              679   -693    696   -709    725    726      0
              710   -724    727   -739    758    759      0
              740   -757    760   -773    789    790      0
              774   -788    791   -803    819    820      0
              804   -818    821   -830      0
              831   -871      0
 $end
 $fmohyb
  6-31G        9   5
    1 0  -0.067724   0.300281   0.000000   0.000000   0.606750
          0.306535   0.000000   0.000000   0.309793
    0 1  -0.067730   0.300310   0.572037   0.000000  -0.202234
          0.306552   0.292061   0.000000  -0.103255
    0 1  -0.067730   0.300310  -0.286019  -0.495398  -0.202234
          0.306552  -0.146031  -0.252933  -0.103255
    0 1  -0.067730   0.300310  -0.286019   0.495398  -0.202234
          0.306552  -0.146031   0.252933  -0.103255
    0 1   1.011954  -0.016447   0.000000   0.000000   0.000000
         -0.059374   0.000000   0.000000  -0.000001
  MINI         5   5
    1 0  -0.109772   0.515046   0.000000   0.000000   0.864512
    0 1  -0.109775   0.515062   0.815062   0.000000  -0.288166
    0 1  -0.109775   0.515062  -0.407531  -0.705864  -0.288166
    0 1  -0.109775   0.515062  -0.407531   0.705864  -0.288166
    0 1   0.996474   0.015610   0.000000   0.000000   0.000000
 $end
 $fmobnd
     -37    38  6-31G       MINI      
     -70    71  6-31G       MINI      
    -101   102  6-31G       MINI      
    -134   135  6-31G       MINI      
    -168   169  6-31G       MINI      
    -199   200  6-31G       MINI      
    -229   230  6-31G       MINI      
    -263   264  6-31G       MINI      
    -294   295  6-31G       MINI      
    -324   325  6-31G       MINI      
    -358   359  6-31G       MINI      
    -388   389  6-31G       MINI      
    -452   453  6-31G       MINI      
    -485   486  6-31G       MINI      
    -516   517  6-31G       MINI      
    -549   550  6-31G       MINI      
    -583   584  6-31G       MINI      
    -614   615  6-31G       MINI      
    -644   645  6-31G       MINI      
    -678   679  6-31G       MINI      
    -709   710  6-31G       MINI      
    -739   740  6-31G       MINI      
    -773   774  6-31G       MINI      
    -803   804  6-31G       MINI      
 $end
 $data
 Structure from PDB
 C1
 c.1-1     6
       n31 6

 h.1-1     1
       n31 6

 n.1-1     7
       n31 6

 p.1-1    15
       n31 6

 o.1-1     8
       n31 6

 $end
 $fmoxyz
      1      O           11.24800000      -11.06500000        1.67100000
      2      C           10.75000000       -9.85000000        2.22500000
      3      C           11.61600000       -8.64800000        1.79100000
      4      O           11.28700000       -8.24000000        0.45100000
      5      C           11.35600000       -7.42500000        2.67000000
      6      O           12.03400000       -7.45500000        3.91900000
      7      C           11.81400000       -6.30200000        1.72800000
      8      O           13.24500000       -6.17800000        1.66400000
      9      C           11.30700000       -6.80800000        0.37700000
     10      N            9.94900000       -6.30800000        0.08900000
     11      C            8.74700000       -6.93300000        0.31600000
     12      N            7.72900000       -6.33800000       -0.22600000
     13      C            8.29100000       -5.17900000       -0.79800000
     14      C            7.69300000       -4.09600000       -1.52600000
     15      O            6.52500000       -3.95000000       -1.89200000
     16      N            8.58400000       -3.09300000       -1.87900000
     17      C            9.91700000       -3.17000000       -1.63200000
     18      N           10.65300000       -2.17900000       -2.06200000
     19      N           10.51800000       -4.17200000       -0.99300000
     20      C            9.64600000       -5.14900000       -0.60000000
     21      H           10.72800000       -9.90500000        3.31700000
     22      H            9.73900000       -9.63800000        1.90400000
     23      H           12.66300000       -8.89300000        1.82700000
     24      H           10.28000000       -7.34800000        2.83300000
     25      H           11.34500000       -5.35500000        1.97100000
     26      H           13.48800000       -5.28000000        1.35600000
     27      H           11.98500000       -6.47300000       -0.41300000
     28      H            8.67100000       -7.85700000        0.87800000
     29      H            8.22400000       -2.32500000       -2.42300000
     30      H           11.63900000       -2.21100000       -1.89900000
     31      H           10.19200000       -1.39800000       -2.50800000
     32      H           10.70400000      -11.81400000        1.98200000
     33      P           11.57100000       -6.57100000        5.15500000
     34      O           12.51800000       -6.82100000        6.27600000
     35      O           10.12000000       -6.82500000        5.37400000
     36      O           11.73600000       -5.04100000        4.67800000
     37      C           13.01000000       -4.43700000        4.58200000
     38      C           12.93000000       -3.06000000        3.90000000
     39      O           12.36600000       -3.12700000        2.57800000
     40      C           12.11200000       -2.01800000        4.68000000
     41      O           12.82800000       -1.43400000        5.75900000
     42      C           11.77600000       -1.04500000        3.54800000
     43      O           12.88400000       -0.19400000        3.23600000
     44      C           11.56300000       -1.98300000        2.35900000
     45      N           10.12400000       -2.31300000        2.21000000
     46      C            9.40600000       -3.35500000        2.75800000
     47      N            8.14900000       -3.39600000        2.40200000
     48      C            8.03200000       -2.26900000        1.56300000
     49      C            6.97400000       -1.67400000        0.82600000
     50      N            5.74100000       -2.13800000        0.73900000
     51      N            7.17800000       -0.55900000        0.12400000
     52      C            8.38700000       -0.00100000        0.14400000
     53      N            9.46300000       -0.44900000        0.77400000
     54      C            9.22000000       -1.59400000        1.47200000
     55      H           13.67600000       -5.08700000        4.00800000
     56      H           13.42800000       -4.32700000        5.58500000
     57      H           13.95800000       -2.67400000        3.81000000
     58      H           11.19900000       -2.52900000        5.06200000
     59      H           10.87000000       -0.46000000        3.74300000
     60      H           13.21600000        0.20500000        4.05800000
     61      H           11.87100000       -1.46700000        1.44900000
     62      H            9.85000000       -4.09700000        3.41600000
     63      H            5.07300000       -1.67600000        0.15300000
     64      H            5.48500000       -2.98700000        1.23500000
     65      H            8.52400000        0.92100000       -0.40900000
     66      P           12.03700000       -0.77600000        6.99600000
     67      O           13.05200000       -0.25100000        7.94300000
     68      O           11.05600000       -1.77900000        7.47200000
     69      O           11.22100000        0.45600000        6.39100000
     70      C           11.84700000        1.66900000        6.02900000
     71      C           10.87900000        2.61700000        5.31500000
     72      O           10.35000000        2.05400000        4.11700000
     73      C            9.68500000        3.03900000        6.15200000
     74      O           10.00800000        3.99400000        7.15300000
     75      C            8.76000000        3.56700000        5.04500000
     76      O            9.19000000        4.86300000        4.58900000
     77      C            9.01800000        2.55600000        3.92400000
     78      N            7.99600000        1.46000000        3.92100000
     79      C            6.78700000        1.66600000        3.25600000
     80      O            6.54600000        2.71800000        2.66000000
     81      N            5.83100000        0.72500000        3.25800000
     82      C            6.03900000       -0.41300000        3.90100000
     83      N            5.09600000       -1.31700000        3.83000000
     84      C            7.23100000       -0.67800000        4.61400000
     85      C            8.19000000        0.28200000        4.60200000
     86      H           12.70400000        1.47000000        5.35900000
     87      H           12.24400000        2.15500000        6.93000000
     88      H           11.42000000        3.54000000        5.05400000
     89      H            9.24800000        2.14800000        6.61300000
     90      H            7.71400000        3.59300000        5.34800000
     91      H            9.14000000        5.48000000        5.33800000
     92      H            8.97700000        3.08300000        2.95600000
     93      H            4.27100000       -1.11000000        3.26300000
     94      H            5.21200000       -2.19700000        4.32900000
     95      H            7.39200000       -1.58800000        5.16400000
     96      H            9.11200000        0.14600000        5.14400000
     97      P            9.12200000        4.11400000        8.47300000
     98      O            9.82900000        5.02800000        9.40600000
     99      O            8.79400000        2.74900000        8.94200000
    100      O            7.73900000        4.82000000        8.00700000
    101      C            7.69800000        6.19400000        7.67600000
    102      C            6.33800000        6.52600000        7.06400000
    103      O            6.10100000        5.73000000        5.90100000
    104      C            5.14300000        6.29800000        7.99100000
    105      O            4.98700000        7.29700000        8.96700000
    106      C            4.04000000        6.32600000        6.91900000
    107      O            3.74900000        7.62900000        6.41000000
    108      C            4.69700000        5.51500000        5.80300000
    109      N            4.37300000        4.06500000        5.95800000
    110      C            5.15900000        3.05200000        6.43300000
    111      N            4.66500000        1.85400000        6.29600000
    112      C            3.39400000        2.10800000        5.73900000
    113      C            2.29300000        1.31200000        5.35100000
    114      N            2.24800000       -0.01300000        5.45800000
    115      N            1.19300000        1.84500000        4.84500000
    116      C            1.15700000        3.16400000        4.73600000
    117      N            2.09800000        4.06000000        5.04300000
    118      C            3.20100000        3.45200000        5.56100000
    119      H            8.47000000        6.43900000        6.95300000
    120      H            7.86700000        6.80300000        8.57100000
    121      H            6.36400000        7.57400000        6.76900000
    122      H            5.20900000        5.30900000        8.43700000
    123      H            3.13900000        5.82100000        7.27700000
    124      H            3.46100000        8.22900000        7.12200000
    125      H            4.32300000        5.84100000        4.84400000
    126      H            6.14500000        3.25700000        6.83600000
    127      H            1.45100000       -0.52300000        5.08000000
    128      H            3.03800000       -0.49300000        5.83700000
    129      H            0.24800000        3.57000000        4.33400000
    130      P            4.14500000        7.02800000       10.32300000
    131      O            4.18800000        8.26300000       11.15300000
    132      O            4.62500000        5.75400000       10.92300000
    133      O            2.64700000        6.80100000        9.82500000
    134      C            1.85200000        7.90600000        9.42900000
    135      C            0.48400000        7.45800000        8.90100000
    136      O            0.60300000        6.57200000        7.79300000
    137      C           -0.45400000        6.77100000        9.90500000
    138      O           -1.12300000        7.69400000       10.76200000
    139      C           -1.41800000        6.07400000        8.93200000
    140      O           -2.33300000        7.00800000        8.36000000
    141      C           -0.45400000        5.63600000        7.83400000
    142      N            0.05100000        4.25800000        8.06000000
    143      C            1.31000000        3.82500000        8.40100000
    144      N            1.45800000        2.52000000        8.37100000
    145      C            0.18500000        2.05200000        8.03100000
    146      C           -0.35000000        0.72500000        7.82000000
    147      O            0.25200000       -0.35300000        7.86000000
    148      N           -1.72100000        0.70800000        7.58500000
    149      C           -2.47700000        1.82900000        7.47100000
    150      N           -3.76000000        1.68800000        7.25400000
    151      N           -2.00900000        3.06200000        7.60700000
    152      C           -0.68300000        3.11000000        7.88500000
    153      H            2.35600000        8.45600000        8.63700000
    154      H            1.71300000        8.59000000       10.27400000
    155      H           -0.04100000        8.34800000        8.54500000
    156      H            0.11600000        6.03200000       10.47900000
    157      H           -1.92700000        5.23800000        9.40400000
    158      H           -2.63700000        7.62400000        9.04900000
    159      H           -0.99800000        5.63300000        6.88300000
    160      H            2.12100000        4.52000000        8.63100000
    161      H           -2.15900000       -0.18800000        7.46600000
    162      H           -4.33700000        2.51100000        7.21600000
    163      H           -4.17100000        0.77200000        7.30700000
    164      P           -1.53900000        7.29900000       12.26200000
    165      O           -2.14100000        8.51200000       12.87200000
    166      O           -0.39400000        6.63900000       12.95400000
    167      O           -2.67300000        6.18100000       12.07400000
    168      C           -3.95900000        6.49000000       11.51400000
    169      C           -4.85900000        5.24700000       11.34500000
    170      O           -4.17900000        4.26900000       10.57100000
    171      C           -5.25200000        4.63000000       12.71000000
    172      O           -6.63100000        4.25300000       12.76300000
    173      C           -4.32700000        3.42200000       12.75600000
    174      O           -4.86400000        2.29000000       13.42600000
    175      C           -4.10800000        3.05900000       11.29300000
    176      N           -2.85000000        2.29700000       11.12200000
    177      C           -2.90900000        0.90300000       10.94800000
    178      O           -3.97300000        0.29500000       10.80100000
    179      N           -1.77000000        0.16000000       10.96900000
    180      C           -0.63300000        0.78800000       11.15700000
    181      N            0.43100000        0.01300000       11.13200000
    182      C           -0.51100000        2.19800000       11.34300000
    183      C           -1.65100000        2.91800000       11.32700000
    184      H           -3.84100000        6.96200000       10.54000000
    185      H           -4.48300000        7.19200000       12.15600000
    186      H           -5.74500000        5.56400000       10.80000000
    187      H           -5.03000000        5.30600000       13.52500000
    188      H           -3.38500000        3.74000000       13.21400000
    189      H           -5.72000000        2.56600000       13.81500000
    190      H           -4.95400000        2.42700000       11.02200000
    191      H            0.28900000       -0.97500000       10.95000000
    192      H            1.34100000        0.42500000       11.18400000
    193      H            0.43800000        2.68300000       11.50700000
    194      H           -1.63000000        3.99500000       11.48300000
    195      P           -7.72600000        5.33100000       13.22100000
    196      O           -9.05700000        4.68800000       13.20700000
    197      O           -7.54100000        6.55900000       12.41600000
    198      O           -7.32800000        5.70800000       14.74500000
    199      C           -7.92700000        5.13300000       15.91100000
    200      C           -7.81300000        3.60200000       16.03000000
    201      O           -6.62000000        3.10000000       15.45900000
    202      C           -7.79400000        3.13200000       17.50400000
    203      O           -9.07800000        2.86900000       18.03300000
    204      C           -6.85300000        1.91600000       17.45200000
    205      O           -7.50500000        0.73500000       16.97700000
    206      C           -5.84900000        2.35000000       16.39000000
    207      N           -4.66700000        3.12500000       16.88500000
    208      C           -3.74900000        2.47400000       17.73700000
    209      O           -3.87400000        1.32300000       18.13100000
    210      N           -2.64500000        3.20700000       18.13600000
    211      C           -2.30800000        4.46900000       17.74000000
    212      O           -1.28400000        5.01500000       18.13000000
    213      C           -3.24700000        5.05200000       16.80900000
    214      C           -4.36800000        4.38100000       16.41700000
    215      H           -8.97700000        5.42300000       15.95400000
    216      H           -7.46600000        5.60200000       16.76500000
    217      H           -8.66700000        3.13100000       15.53800000
    218      H           -7.29800000        3.89400000       18.10200000
    219      H           -6.39000000        1.74600000       18.42300000
    220      H           -8.26100000        0.53000000       17.56700000
    221      H           -5.45800000        1.44600000       15.89700000
    222      H           -1.99900000        2.72600000       18.72400000
    223      H           -3.05100000        6.04500000       16.42500000
    224      H           -5.03100000        4.81700000       15.69400000
    225      P           -9.27900000        2.39800000       19.55600000
    226      O          -10.61900000        2.84900000       19.99100000
    227      O           -8.10800000        2.80700000       20.36800000
    228      O           -9.26400000        0.79100000       19.46200000
    229      C          -10.38700000        0.07800000       18.98000000
    230      C          -10.16200000       -1.43800000       18.85400000
    231      O           -9.13000000       -1.74400000       17.92500000
    232      C           -9.79500000       -2.15000000       20.16700000
    233      O          -10.89100000       -2.47300000       21.00500000
    234      C           -9.11900000       -3.42100000       19.62000000
    235      O          -10.07900000       -4.37700000       19.15600000
    236      C           -8.39200000       -2.87200000       18.38700000
    237      N           -7.00300000       -2.50100000       18.70800000
    238      C           -6.50900000       -1.31600000       19.19100000
    239      N           -5.19900000       -1.26700000       19.19400000
    240      C           -4.79100000       -2.51000000       18.70200000
    241      C           -3.49100000       -3.08600000       18.45700000
    242      O           -2.37700000       -2.56000000       18.55600000
    243      N           -3.53200000       -4.41500000       18.06600000
    244      C           -4.68800000       -5.09400000       17.90500000
    245      N           -4.60500000       -6.34100000       17.54600000
    246      N           -5.91600000       -4.59200000       18.03800000
    247      C           -5.90300000       -3.29300000       18.47500000
    248      H          -10.67500000        0.45400000       18.00600000
    249      H          -11.21600000        0.24100000       19.68200000
    250      H          -11.07700000       -1.88400000       18.49300000
    251      H           -9.06200000       -1.56600000       20.72100000
    252      H           -8.42300000       -3.86100000       20.33600000
    253      H          -10.85200000       -4.37900000       19.77100000
    254      H           -8.38400000       -3.66000000       17.61400000
    255      H           -7.14600000       -0.50800000       19.53100000
    256      H           -2.64900000       -4.87700000       17.92300000
    257      H           -5.46800000       -6.86700000       17.43700000
    258      H           -3.70200000       -6.80600000       17.50300000
    259      P          -10.68300000       -2.76500000       22.55300000
    260      O          -12.02500000       -3.10900000       23.12000000
    261      O           -9.91800000       -1.65100000       23.16900000
    262      O           -9.75200000       -4.07600000       22.63400000
    263      C          -10.25800000       -5.38100000       22.42200000
    264      C           -9.14800000       -6.43500000       22.39300000
    265      O           -8.22200000       -6.17200000       21.33900000
    266      C           -8.32200000       -6.55500000       23.67400000
    267      O           -8.97100000       -7.28400000       24.71300000
    268      C           -7.09400000       -7.28600000       23.11100000
    269      O           -7.32000000       -8.66100000       22.83700000
    270      C           -6.92300000       -6.60400000       21.74700000
    271      N           -5.94000000       -5.49300000       21.81800000
    272      C           -4.59000000       -5.75300000       21.55000000
    273      O           -4.18200000       -6.88900000       21.33100000
    274      N           -3.67300000       -4.75600000       21.54500000
    275      C           -4.07100000       -3.53900000       21.83800000
    276      N           -3.15200000       -2.63000000       21.78700000
    277      C           -5.40500000       -3.20900000       22.19700000
    278      C           -6.31100000       -4.22000000       22.18600000
    279      H          -10.78500000       -5.41400000       21.47400000
    280      H          -10.95800000       -5.62700000       23.23700000
    281      H           -9.62300000       -7.40100000       22.20700000
    282      H           -8.01900000       -5.55100000       24.01000000
    283      H           -6.21900000       -7.14300000       23.73700000
    284      H           -7.68400000       -9.10100000       23.64000000
    285      H           -6.53700000       -7.36300000       21.03600000
    286      H           -2.22900000       -2.95600000       21.48700000
    287      H           -3.33500000       -1.65500000       21.95200000
    288      H           -5.69500000       -2.20500000       22.48100000
    289      H           -7.34200000       -4.00400000       22.45600000
    290      P           -8.55000000       -7.09300000       26.25400000
    291      O           -9.42700000       -7.99300000       27.04100000
    292      O           -8.53200000       -5.63200000       26.55600000
    293      O           -7.02700000       -7.61900000       26.33900000
    294      C           -6.74300000       -9.02100000       26.30500000
    295      C           -5.23800000       -9.26900000       26.23900000
    296      O           -4.63400000       -8.71400000       25.06900000
    297      C           -4.44900000       -8.69000000       27.42600000
    298      O           -4.56700000       -9.42300000       28.63300000
    299      C           -3.04500000       -8.74400000       26.80900000
    300      O           -2.51100000      -10.06800000       26.80200000
    301      C           -3.28400000       -8.33900000       25.35600000
    302      N           -3.10100000       -6.86900000       25.15500000
    303      C           -1.80700000       -6.43500000       24.85500000
    304      O           -0.86600000       -7.20100000       24.70600000
    305      N           -1.61800000       -5.08200000       24.72900000
    306      C           -2.56100000       -4.10700000       24.92500000
    307      O           -2.26400000       -2.93200000       24.78500000
    308      C           -3.85900000       -4.62500000       25.28100000
    309      C           -4.10400000       -5.96100000       25.38100000
    310      H           -7.19400000       -9.48100000       25.43500000
    311      H           -7.13700000       -9.51700000       27.17300000
    312      H           -5.09400000      -10.34800000       26.22300000
    313      H           -4.75300000       -7.65500000       27.57800000
    314      H           -2.38300000       -8.03900000       27.31100000
    315      H           -2.76400000      -10.48600000       27.64800000
    316      H           -2.59800000       -8.88600000       24.72100000
    317      H           -0.67200000       -4.75300000       24.53600000
    318      H           -4.66100000       -3.91300000       25.51100000
    319      H           -5.09100000       -6.30200000       25.66100000
    320      P           -4.25700000       -8.67200000       30.01600000
    321      O           -4.47700000       -9.64500000       31.11000000
    322      O           -5.03300000       -7.41500000       30.03400000
    323      O           -2.69200000       -8.30300000       29.97700000
    324      C           -1.70400000       -9.29100000       30.24600000
    325      C           -0.27500000       -8.74200000       30.13400000
    326      O           -0.04400000       -8.18300000       28.84900000
    327      C            0.06700000       -7.63600000       31.14100000
    328      O            0.34800000       -8.11800000       32.45600000
    329      C            1.30000000       -7.03200000       30.43800000
    330      O            2.47500000       -7.83900000       30.56000000
    331      C            0.84500000       -7.08200000       28.97300000
    332      N            0.20900000       -5.78900000       28.57800000
    333      C           -1.12700000       -5.49400000       28.39000000
    334      N           -1.35200000       -4.26500000       27.96500000
    335      C           -0.06500000       -3.72000000       27.91600000
    336      C            0.39600000       -2.39800000       27.56200000
    337      O           -0.24300000       -1.42800000       27.15400000
    338      N            1.75300000       -2.23200000       27.70600000
    339      C            2.59900000       -3.22600000       28.08000000
    340      N            3.86500000       -2.92200000       28.20400000
    341      N            2.23700000       -4.46200000       28.38500000
    342      C            0.87900000       -4.64800000       28.31200000
    343      H           -1.84300000      -10.12100000       29.54900000
    344      H           -1.87400000       -9.65900000       31.26200000
    345      H            0.43500000       -9.56400000       30.26800000
    346      H           -0.74500000       -6.91000000       31.15300000
    347      H            1.48500000       -6.01600000       30.75900000
    348      H            3.23600000       -7.42700000       30.10900000
    349      H            1.72300000       -7.22700000       28.34100000
    350      H           -1.93000000       -6.21500000       28.55300000
    351      H            2.13000000       -1.34100000       27.43400000